TiO2                                    
           1
     8.737755    0.000000   -0.000000
     0.000000   10.089491    0.000000
     0.000000    0.000000   21.000026
   H    O    Cu
     2     1    64
Direct configuration=     1
   0.11203842  0.65111598  0.46527068
   0.29363924  0.65318677  0.46259505
   0.19964160  0.70561234  0.45326316
   0.21461365  0.46180469  0.05105452
   0.71461365  0.21180469  0.05105452
   0.04794698  0.21180469  0.14912624
   0.54794698  0.46180469  0.14912624
   0.38192862  0.21097747  0.24642807
   0.88212770  0.46097323  0.24570784
   0.21430250  0.45815221  0.34323664
   0.71589829  0.21029510  0.34509818
   0.21461365  0.21180469  0.05105452
   0.71461365  0.46180469  0.05105452
   0.04794698  0.46180469  0.14912624
   0.54794698  0.21180469  0.14912624
   0.38354651  0.46260205  0.24754538
   0.88211720  0.21086798  0.24656328
   0.21582088  0.21091326  0.34491364
   0.71767144  0.45680368  0.34268035
   0.46461365  0.08680469  0.05105452
   0.96461365  0.33680469  0.05105452
   0.29794698  0.33680469  0.14912624
   0.79794698  0.08680469  0.14912624
   0.13196596  0.08669715  0.24641715
   0.63178441  0.33681007  0.24621399
   0.46578881  0.08653049  0.34513027
   0.96609330  0.33491827  0.34463255
   0.46461365  0.33680469  0.05105452
   0.96461365  0.08680469  0.05105452
   0.29794698  0.08680469  0.14912624
   0.79794698  0.33680469  0.14912624
   0.13234834  0.33664384  0.24606697
   0.63189764  0.08668481  0.24644231
   0.46586222  0.33366556  0.34418447
   0.96588916  0.08669306  0.34460510
   0.21461365  0.96180469  0.05105452
   0.71461365  0.71180469  0.05105452
   0.04794698  0.71180469  0.14912624
   0.54794698  0.96180469  0.14912624
   0.38164715  0.70998042  0.24892534
   0.88196866  0.96136767  0.24614913
   0.21587247  0.96333053  0.34427541
   0.71752336  0.71114701  0.34974471
   0.21461365  0.71180469  0.05105452
   0.71461365  0.96180469  0.05105452
   0.04794698  0.96180469  0.14912624
   0.54794698  0.71180469  0.14912624
   0.38218195  0.96083427  0.24626045
   0.88056425  0.71108491  0.24760173
   0.21131197  0.71232707  0.34930653
   0.71572599  0.96283127  0.34442239
   0.46461365  0.58680469  0.05105452
   0.96461365  0.83680469  0.05105452
   0.29794698  0.83680469  0.14912624
   0.79794698  0.58680469  0.14912624
   0.13339005  0.58811952  0.24713392
   0.63322012  0.83515216  0.24773852
   0.46509657  0.58447988  0.34817175
   0.96482079  0.83898662  0.34316357
   0.46461365  0.83680469  0.05105452
   0.96461365  0.58680469  0.05105452
   0.29794698  0.58680469  0.14912624
   0.79794698  0.83680469  0.14912624
   0.13324290  0.83574503  0.24735700
   0.63164828  0.58797759  0.24824915
   0.46544784  0.83944087  0.34325463
   0.96544115  0.58302438  0.34247761
Direct configuration=     2
   0.11209604  0.65033236  0.46530010
   0.28952533  0.65468504  0.46242634
   0.20382686  0.70486269  0.45393212
   0.21461365  0.46180469  0.05105452
   0.71461365  0.21180469  0.05105452
   0.04794698  0.21180469  0.14912624
   0.54794698  0.46180469  0.14912624
   0.38194602  0.21109038  0.24643091
   0.88225654  0.46093516  0.24560860
   0.21505336  0.45850951  0.34350845
   0.71598028  0.21025897  0.34505280
   0.21461365  0.21180469  0.05105452
   0.71461365  0.46180469  0.05105452
   0.04794698  0.46180469  0.14912624
   0.54794698  0.21180469  0.14912624
   0.38336053  0.46228303  0.24732058
   0.88206740  0.21105621  0.24654818
   0.21583715  0.21087586  0.34496868
   0.71697797  0.45799514  0.34329799
   0.46461365  0.08680469  0.05105452
   0.96461365  0.33680469  0.05105452
   0.29794698  0.33680469  0.14912624
   0.79794698  0.08680469  0.14912624
   0.13194836  0.08663595  0.24640082
   0.63179042  0.33654638  0.24612824
   0.46578889  0.08653528  0.34508040
   0.96615073  0.33490240  0.34465393
   0.46461365  0.33680469  0.05105452
   0.96461365  0.08680469  0.05105452
   0.29794698  0.08680469  0.14912624
   0.79794698  0.33680469  0.14912624
   0.13231255  0.33660981  0.24605725
   0.63181530  0.08654657  0.24647165
   0.46583554  0.33437370  0.34444122
   0.96590349  0.08669853  0.34466592
   0.21461365  0.96180469  0.05105452
   0.71461365  0.71180469  0.05105452
   0.04794698  0.71180469  0.14912624
   0.54794698  0.96180469  0.14912624
   0.38131440  0.71031729  0.24875361
   0.88199749  0.96150793  0.24607866
   0.21588892  0.96336591  0.34425482
   0.71689758  0.71090616  0.34912493
   0.21461365  0.71180469  0.05105452
   0.71461365  0.96180469  0.05105452
   0.04794698  0.96180469  0.14912624
   0.54794698  0.71180469  0.14912624
   0.38225444  0.96099647  0.24623175
   0.88088511  0.71122056  0.24739495
   0.21218976  0.71211265  0.34891471
   0.71577817  0.96237763  0.34459434
   0.46461365  0.58680469  0.05105452
   0.96461365  0.83680469  0.05105452
   0.29794698  0.83680469  0.14912624
   0.79794698  0.58680469  0.14912624
   0.13330809  0.58795230  0.24704486
   0.63306288  0.83552083  0.24749551
   0.46587924  0.58468198  0.34760566
   0.96424973  0.83839943  0.34343877
   0.46461365  0.83680469  0.05105452
   0.96461365  0.58680469  0.05105452
   0.29794698  0.58680469  0.14912624
   0.79794698  0.83680469  0.14912624
   0.13321816  0.83568412  0.24734919
   0.63180628  0.58774079  0.24810134
   0.46597300  0.83831446  0.34374010
   0.96465779  0.58351471  0.34277736
Direct configuration=     3
   0.11205816  0.65084756  0.46528076
   0.29223005  0.65369999  0.46253726
   0.20107523  0.70535555  0.45349231
   0.21461365  0.46180469  0.05105452
   0.71461365  0.21180469  0.05105452
   0.04794698  0.21180469  0.14912624
   0.54794698  0.46180469  0.14912624
   0.38193458  0.21101614  0.24642904
   0.88217183  0.46096019  0.24567385
   0.21455971  0.45827460  0.34332975
   0.71592638  0.21028272  0.34508263
   0.21461365  0.21180469  0.05105452
   0.71461365  0.46180469  0.05105452
   0.04794698  0.46180469  0.14912624
   0.54794698  0.21180469  0.14912624
   0.38348280  0.46249278  0.24746837
   0.88210014  0.21093246  0.24655811
   0.21582645  0.21090045  0.34493249
   0.71743389  0.45721181  0.34289192
   0.46461365  0.08680469  0.05105452
   0.96461365  0.33680469  0.05105452
   0.29794698  0.33680469  0.14912624
   0.79794698  0.08680469  0.14912624
   0.13195993  0.08667619  0.24641155
   0.63178647  0.33671974  0.24618462
   0.46578884  0.08653213  0.34511319
   0.96611297  0.33491284  0.34463987
   0.46461365  0.33680469  0.05105452
   0.96461365  0.08680469  0.05105452
   0.29794698  0.08680469  0.14912624
   0.79794698  0.33680469  0.14912624
   0.13233608  0.33663219  0.24606364
   0.63186944  0.08663746  0.24645236
   0.46585308  0.33390813  0.34427242
   0.96589407  0.08669493  0.34462593
   0.21461365  0.96180469  0.05105452
   0.71461365  0.71180469  0.05105452
   0.04794698  0.71180469  0.14912624
   0.54794698  0.96180469  0.14912624
   0.38153317  0.71009581  0.24886651
   0.88197854  0.96141572  0.24612499
   0.21587810  0.96334265  0.34426836
   0.71730901  0.71106451  0.34953241
   0.21461365  0.71180469  0.05105452
   0.71461365  0.96180469  0.05105452
   0.04794698  0.96180469  0.14912624
   0.54794698  0.71180469  0.14912624
   0.38220678  0.96088983  0.24625062
   0.88067416  0.71113137  0.24753090
   0.21161265  0.71225362  0.34917232
   0.71574387  0.96267588  0.34448129
   0.46461365  0.58680469  0.05105452
   0.96461365  0.83680469  0.05105452
   0.29794698  0.83680469  0.14912624
   0.79794698  0.58680469  0.14912624
   0.13336197  0.58806224  0.24710342
   0.63316626  0.83527844  0.24765528
   0.46536467  0.58454911  0.34797784
   0.96462518  0.83878548  0.34325784
   0.46461365  0.83680469  0.05105452
   0.96461365  0.58680469  0.05105452
   0.29794698  0.58680469  0.14912624
   0.79794698  0.83680469  0.14912624
   0.13323442  0.83572416  0.24735433
   0.63170240  0.58789648  0.24819852
   0.46562773  0.83905503  0.34342093
   0.96517281  0.58319234  0.34258029
Direct configuration=     4
   0.11368969  0.65076909  0.46511321
   0.29102873  0.65328428  0.46276416
   0.20058504  0.70570899  0.45413792
   0.21461365  0.46180469  0.05105452
   0.71461365  0.21180469  0.05105452
   0.04794698  0.21180469  0.14912624
   0.54794698  0.46180469  0.14912624
   0.38196265  0.21116871  0.24644493
   0.88231757  0.46091948  0.24557510
   0.21552226  0.45876293  0.34369201
   0.71602814  0.21026838  0.34501735
   0.21461365  0.21180469  0.05105452
   0.71461365  0.46180469  0.05105452
   0.04794698  0.46180469  0.14912624
   0.54794698  0.21180469  0.14912624
   0.38322955  0.46207657  0.24716624
   0.88203978  0.21117661  0.24654192
   0.21585927  0.21086368  0.34500632
   0.71652496  0.45879266  0.34372540
   0.46461365  0.08680469  0.05105452
   0.96461365  0.33680469  0.05105452
   0.29794698  0.33680469  0.14912624
   0.79794698  0.08680469  0.14912624
   0.13193986  0.08659943  0.24639383
   0.63181432  0.33639084  0.24609487
   0.46579824  0.08652391  0.34504517
   0.96617954  0.33494371  0.34466811
   0.46461365  0.33680469  0.05105452
   0.96461365  0.08680469  0.05105452
   0.29794698  0.08680469  0.14912624
   0.79794698  0.33680469  0.14912624
   0.13229629  0.33659145  0.24606564
   0.63177842  0.08645489  0.24649579
   0.46583222  0.33484598  0.34461557
   0.96591816  0.08667692  0.34470718
   0.21461365  0.96180469  0.05105452
   0.71461365  0.71180469  0.05105452
   0.04794698  0.71180469  0.14912624
   0.54794698  0.96180469  0.14912624
   0.38111038  0.71056056  0.24862131
   0.88203468  0.96160237  0.24604436
   0.21590952  0.96335385  0.34424034
   0.71647698  0.71074956  0.34867799
   0.21461365  0.71180469  0.05105452
   0.71461365  0.96180469  0.05105452
   0.04794698  0.96180469  0.14912624
   0.54794698  0.71180469  0.14912624
   0.38230122  0.96109027  0.24623387
   0.88111874  0.71132259  0.24725005
   0.21280341  0.71199223  0.34865369
   0.71581043  0.96207085  0.34471124
   0.46461365  0.58680469  0.05105452
   0.96461365  0.83680469  0.05105452
   0.29794698  0.83680469  0.14912624
   0.79794698  0.58680469  0.14912624
   0.13323533  0.58781685  0.24699911
   0.63295272  0.83576172  0.24733594
   0.46640164  0.58480533  0.34718422
   0.96388548  0.83799051  0.34362936
   0.46461365  0.83680469  0.05105452
   0.96461365  0.58680469  0.05105452
   0.29794698  0.58680469  0.14912624
   0.79794698  0.83680469  0.14912624
   0.13318136  0.83565923  0.24735289
   0.63192131  0.58756414  0.24797913
   0.46632972  0.83759978  0.34405631
   0.96417500  0.58384415  0.34298208
Direct configuration=     5
   0.11576962  0.65066907  0.46489962
   0.28949727  0.65275431  0.46305342
   0.19996013  0.70615957  0.45496097
   0.21461365  0.46180469  0.05105452
   0.71461365  0.21180469  0.05105452
   0.04794698  0.21180469  0.14912624
   0.54794698  0.46180469  0.14912624
   0.38199844  0.21136320  0.24646518
   0.88250335  0.46086758  0.24544921
   0.21674934  0.45938547  0.34415383
   0.71615786  0.21025010  0.34493412
   0.21461365  0.21180469  0.05105452
   0.71461365  0.46180469  0.05105452
   0.04794698  0.46180469  0.14912624
   0.54794698  0.21180469  0.14912624
   0.38290671  0.46154598  0.24678108
   0.88196284  0.21148786  0.24652129
   0.21590111  0.21081681  0.34510043
   0.71536623  0.46080798  0.34478794
   0.46461365  0.08680469  0.05105452
   0.96461365  0.33680469  0.05105452
   0.29794698  0.33680469  0.14912624
   0.79794698  0.08680469  0.14912624
   0.13191428  0.08650158  0.24637124
   0.63184982  0.33597154  0.24598046
   0.46581022  0.08651342  0.34495847
   0.96626440  0.33498307  0.34470411
   0.46461365  0.33680469  0.05105452
   0.96461365  0.08680469  0.05105452
   0.29794698  0.08680469  0.14912624
   0.79794698  0.33680469  0.14912624
   0.13224556  0.33653952  0.24606819
   0.63166239  0.08622215  0.24655115
   0.46580561  0.33604157  0.34505302
   0.96594886  0.08665396  0.34481076
   0.21461365  0.96180469  0.05105452
   0.71461365  0.71180469  0.05105452
   0.04794698  0.71180469  0.14912624
   0.54794698  0.96180469  0.14912624
   0.38057139  0.71115303  0.24830871
   0.88210625  0.96184031  0.24594158
   0.21594957  0.96336814  0.34420462
   0.71541628  0.71034807  0.34758874
   0.21461365  0.71180469  0.05105452
   0.71461365  0.96180469  0.05105452
   0.04794698  0.96180469  0.14912624
   0.54794698  0.71180469  0.14912624
   0.38242161  0.96134579  0.24621251
   0.88168550  0.71156635  0.24689202
   0.21432142  0.71165900  0.34799253
   0.71589529  0.96129955  0.34500439
   0.46461365  0.58680469  0.05105452
   0.96461365  0.83680469  0.05105452
   0.29794698  0.83680469  0.14912624
   0.79794698  0.58680469  0.14912624
   0.13307389  0.58750401  0.24686614
   0.63268050  0.83637782  0.24692883
   0.46772359  0.58513196  0.34617250
   0.96294249  0.83697705  0.34410299
   0.46461365  0.83680469  0.05105452
   0.96461365  0.58680469  0.05105452
   0.29794698  0.58680469  0.14912624
   0.79794698  0.83680469  0.14912624
   0.13311371  0.83557646  0.24735106
   0.63220038  0.58714047  0.24769944
   0.46722463  0.83574460  0.34486630
   0.96290297  0.58467509  0.34349430
Direct configuration=     6
   0.11455432  0.65072751  0.46502442
   0.29039210  0.65306397  0.46288441
   0.20032526  0.70589630  0.45448007
   0.21461365  0.46180469  0.05105452
   0.71461365  0.21180469  0.05105452
   0.04794698  0.21180469  0.14912624
   0.54794698  0.46180469  0.14912624
   0.38197753  0.21124956  0.24645335
   0.88239480  0.46089790  0.24552277
   0.21603236  0.45902172  0.34388399
   0.71608206  0.21026078  0.34498275
   0.21461365  0.21180469  0.05105452
   0.71461365  0.46180469  0.05105452
   0.04794698  0.46180469  0.14912624
   0.54794698  0.21180469  0.14912624
   0.38309534  0.46185600  0.24700613
   0.88200780  0.21130600  0.24653335
   0.21587666  0.21084420  0.34504544
   0.71604328  0.45963044  0.34416710
   0.46461365  0.08680469  0.05105452
   0.96461365  0.33680469  0.05105452
   0.29794698  0.33680469  0.14912624
   0.79794698  0.08680469  0.14912624
   0.13192923  0.08655876  0.24638444
   0.63182908  0.33621653  0.24604731
   0.46580322  0.08651955  0.34500913
   0.96621481  0.33496007  0.34468308
   0.46461365  0.33680469  0.05105452
   0.96461365  0.08680469  0.05105452
   0.29794698  0.08680469  0.14912624
   0.79794698  0.33680469  0.14912624
   0.13227520  0.33656986  0.24606670
   0.63173019  0.08635814  0.24651880
   0.46582116  0.33534299  0.34479742
   0.96593092  0.08666738  0.34475024
   0.21461365  0.96180469  0.05105452
   0.71461365  0.71180469  0.05105452
   0.04794698  0.71180469  0.14912624
   0.54794698  0.96180469  0.14912624
   0.38088632  0.71080685  0.24849136
   0.88206443  0.96170128  0.24600163
   0.21592617  0.96335979  0.34422549
   0.71603604  0.71058266  0.34822518
   0.21461365  0.71180469  0.05105452
   0.71461365  0.96180469  0.05105452
   0.04794698  0.96180469  0.14912624
   0.54794698  0.71180469  0.14912624
   0.38235126  0.96119649  0.24622499
   0.88135434  0.71142392  0.24710122
   0.21343445  0.71185370  0.34837884
   0.71584571  0.96175022  0.34483311
   0.46461365  0.58680469  0.05105452
   0.96461365  0.83680469  0.05105452
   0.29794698  0.83680469  0.14912624
   0.79794698  0.58680469  0.14912624
   0.13316822  0.58768680  0.24694383
   0.63283956  0.83601784  0.24716670
   0.46695118  0.58494111  0.34676364
   0.96349348  0.83756921  0.34382625
   0.46461365  0.83680469  0.05105452
   0.96461365  0.58680469  0.05105452
   0.29794698  0.58680469  0.14912624
   0.79794698  0.83680469  0.14912624
   0.13315324  0.83562483  0.24735213
   0.63203732  0.58738802  0.24786286
   0.46670174  0.83682857  0.34439302
   0.96364622  0.58418957  0.34319501
Direct configuration=     7
   0.11424146  0.64996249  0.46505099
   0.29048700  0.65243639  0.46309559
   0.20045868  0.70722011  0.45469600
   0.21461365  0.46180469  0.05105452
   0.71461365  0.21180469  0.05105452
   0.04794698  0.21180469  0.14912624
   0.54794698  0.46180469  0.14912624
   0.38199747  0.21133910  0.24648584
   0.88242579  0.46089626  0.24553106
   0.21652224  0.45933160  0.34408665
   0.71612254  0.21031595  0.34493841
   0.21461365  0.21180469  0.05105452
   0.71461365  0.46180469  0.05105452
   0.04794698  0.46180469  0.14912624
   0.54794698  0.21180469  0.14912624
   0.38294043  0.46163551  0.24683210
   0.88198288  0.21143009  0.24653456
   0.21591839  0.21085933  0.34508704
   0.71559737  0.46044665  0.34464740
   0.46461365  0.08680469  0.05105452
   0.96461365  0.33680469  0.05105452
   0.29794698  0.33680469  0.14912624
   0.79794698  0.08680469  0.14912624
   0.13191623  0.08651877  0.24638167
   0.63186681  0.33607093  0.24605355
   0.46583002  0.08648271  0.34496967
   0.96623086  0.33507709  0.34469914
   0.46461365  0.33680469  0.05105452
   0.96461365  0.08680469  0.05105452
   0.29794698  0.08680469  0.14912624
   0.79794698  0.33680469  0.14912624
   0.13226053  0.33654855  0.24609796
   0.63170829  0.08625865  0.24655382
   0.46585128  0.33586435  0.34499292
   0.96593963  0.08660913  0.34479497
   0.21461365  0.96180469  0.05105452
   0.71461365  0.71180469  0.05105452
   0.04794698  0.71180469  0.14912624
   0.54794698  0.96180469  0.14912624
   0.38070340  0.71107553  0.24832970
   0.88210749  0.96180628  0.24599006
   0.21596161  0.96329807  0.34420617
   0.71556613  0.71045489  0.34767882
   0.21461365  0.71180469  0.05105452
   0.71461365  0.96180469  0.05105452
   0.04794698  0.96180469  0.14912624
   0.54794698  0.71180469  0.14912624
   0.38240051  0.96128605  0.24625553
   0.88161417  0.71153156  0.24693356
   0.21410970  0.71170137  0.34807902
   0.71587252  0.96140101  0.34496736
   0.46461365  0.58680469  0.05105452
   0.96461365  0.83680469  0.05105452
   0.29794698  0.83680469  0.14912624
   0.79794698  0.58680469  0.14912624
   0.13306366  0.58751088  0.24691998
   0.63269704  0.83626939  0.24698648
   0.46748324  0.58508292  0.34625549
   0.96311690  0.83711796  0.34403624
   0.46461365  0.83680469  0.05105452
   0.96461365  0.58680469  0.05105452
   0.29794698  0.58680469  0.14912624
   0.79794698  0.83680469  0.14912624
   0.13307604  0.83562024  0.24736483
   0.63217774  0.58718627  0.24769303
   0.46707637  0.83608610  0.34474433
   0.96312887  0.58454736  0.34342772
Direct configuration=     8
   0.11416299  0.64977060  0.46505766
   0.29051080  0.65227899  0.46314855
   0.20049215  0.70755215  0.45475016
   0.21461365  0.46180469  0.05105452
   0.71461365  0.21180469  0.05105452
   0.04794698  0.21180469  0.14912624
   0.54794698  0.46180469  0.14912624
   0.38200247  0.21136156  0.24649399
   0.88243356  0.46089585  0.24553314
   0.21664512  0.45940932  0.34413748
   0.71613270  0.21032979  0.34492729
   0.21461365  0.21180469  0.05105452
   0.71461365  0.46180469  0.05105452
   0.04794698  0.46180469  0.14912624
   0.54794698  0.21180469  0.14912624
   0.38290158  0.46158021  0.24678845
   0.88197663  0.21146122  0.24653486
   0.21592885  0.21086312  0.34509748
   0.71548552  0.46065137  0.34476786
   0.46461365  0.08680469  0.05105452
   0.96461365  0.33680469  0.05105452
   0.29794698  0.33680469  0.14912624
   0.79794698  0.08680469  0.14912624
   0.13191297  0.08650874  0.24638098
   0.63187628  0.33603441  0.24605512
   0.46583675  0.08647347  0.34495977
   0.96623489  0.33510644  0.34470317
   0.46461365  0.33680469  0.05105452
   0.96461365  0.08680469  0.05105452
   0.29794698  0.08680469  0.14912624
   0.79794698  0.33680469  0.14912624
   0.13225686  0.33654321  0.24610580
   0.63170279  0.08623369  0.24656260
   0.46585884  0.33599512  0.34504195
   0.96594181  0.08659452  0.34480619
   0.21461365  0.96180469  0.05105452
   0.71461365  0.71180469  0.05105452
   0.04794698  0.71180469  0.14912624
   0.54794698  0.96180469  0.14912624
   0.38065753  0.71114292  0.24828915
   0.88211829  0.96183261  0.24598716
   0.21597050  0.96328259  0.34420132
   0.71544827  0.71042284  0.34754178
   0.21461365  0.71180469  0.05105452
   0.71461365  0.96180469  0.05105452
   0.04794698  0.96180469  0.14912624
   0.54794698  0.71180469  0.14912624
   0.38241286  0.96130851  0.24626320
   0.88167934  0.71155856  0.24689150
   0.21427906  0.71166316  0.34800381
   0.71587925  0.96131342  0.34500103
   0.46461365  0.58680469  0.05105452
   0.96461365  0.83680469  0.05105452
   0.29794698  0.83680469  0.14912624
   0.79794698  0.58680469  0.14912624
   0.13303744  0.58746675  0.24691399
   0.63266130  0.83633249  0.24694128
   0.46761670  0.58511849  0.34612803
   0.96302245  0.83700478  0.34408891
   0.46461365  0.83680469  0.05105452
   0.96461365  0.58680469  0.05105452
   0.29794698  0.58680469  0.14912624
   0.79794698  0.83680469  0.14912624
   0.13305668  0.83561909  0.24736801
   0.63221296  0.58713567  0.24765043
   0.46717033  0.83589988  0.34483244
   0.96299911  0.58463710  0.34348609
Direct configuration=     9
   0.11393956  0.64973427  0.46502379
   0.29056044  0.65234065  0.46317215
   0.20065384  0.70747594  0.45488263
   0.21461365  0.46180469  0.05105452
   0.71461365  0.21180469  0.05105452
   0.04794698  0.21180469  0.14912624
   0.54794698  0.46180469  0.14912624
   0.38201344  0.21137715  0.24652882
   0.88236976  0.46092585  0.24561446
   0.21662254  0.45947405  0.34415540
   0.71611403  0.21041189  0.34491495
   0.21461365  0.21180469  0.05105452
   0.71461365  0.46180469  0.05105452
   0.04794698  0.46180469  0.14912624
   0.54794698  0.21180469  0.14912624
   0.38286962  0.46158085  0.24676903
   0.88198843  0.21146189  0.24654943
   0.21596437  0.21091363  0.34510252
   0.71553217  0.46060794  0.34482508
   0.46461365  0.08680469  0.05105452
   0.96461365  0.33680469  0.05105452
   0.29794698  0.33680469  0.14912624
   0.79794698  0.08680469  0.14912624
   0.13191275  0.08651275  0.24639206
   0.63190163  0.33608030  0.24612862
   0.46586743  0.08643388  0.34495520
   0.96621196  0.33524738  0.34470518
   0.46461365  0.33680469  0.05105452
   0.96461365  0.08680469  0.05105452
   0.29794698  0.08680469  0.14912624
   0.79794698  0.33680469  0.14912624
   0.13226444  0.33654398  0.24614711
   0.63174045  0.08623754  0.24657926
   0.46591375  0.33601904  0.34506274
   0.96593125  0.08652999  0.34480826
   0.21461365  0.96180469  0.05105452
   0.71461365  0.71180469  0.05105452
   0.04794698  0.71180469  0.14912624
   0.54794698  0.96180469  0.14912624
   0.38070595  0.71117867  0.24824081
   0.88213095  0.96183586  0.24603202
   0.21599452  0.96319386  0.34419569
   0.71542696  0.71047876  0.34740561
   0.21461365  0.71180469  0.05105452
   0.71461365  0.96180469  0.05105452
   0.04794698  0.96180469  0.14912624
   0.54794698  0.71180469  0.14912624
   0.38241050  0.96129261  0.24631666
   0.88170449  0.71156956  0.24687253
   0.21432742  0.71164492  0.34797240
   0.71587114  0.96126482  0.34502329
   0.46461365  0.58680469  0.05105452
   0.96461365  0.83680469  0.05105452
   0.29794698  0.83680469  0.14912624
   0.79794698  0.58680469  0.14912624
   0.13298792  0.58741156  0.24695566
   0.63262197  0.83633027  0.24692691
   0.46758091  0.58512890  0.34601043
   0.96303956  0.83696597  0.34410826
   0.46461365  0.83680469  0.05105452
   0.96461365  0.58680469  0.05105452
   0.29794698  0.58680469  0.14912624
   0.79794698  0.83680469  0.14912624
   0.13298668  0.83565862  0.24738522
   0.63225576  0.58709048  0.24756764
   0.46718613  0.83594644  0.34485534
   0.96301912  0.58466095  0.34351572
Direct configuration=    10
   0.11326928  0.64962526  0.46492218
   0.29070937  0.65252564  0.46324292
   0.20113890  0.70724734  0.45528005
   0.21461365  0.46180469  0.05105452
   0.71461365  0.21180469  0.05105452
   0.04794698  0.21180469  0.14912624
   0.54794698  0.46180469  0.14912624
   0.38204636  0.21142390  0.24663332
   0.88217835  0.46101584  0.24585844
   0.21655481  0.45966825  0.34420915
   0.71605804  0.21065819  0.34487794
   0.21461365  0.21180469  0.05105452
   0.71461365  0.46180469  0.05105452
   0.04794698  0.46180469  0.14912624
   0.54794698  0.21180469  0.14912624
   0.38277375  0.46158277  0.24671079
   0.88202382  0.21146391  0.24659313
   0.21607091  0.21106515  0.34511762
   0.71567210  0.46047764  0.34499675
   0.46461365  0.08680469  0.05105452
   0.96461365  0.33680469  0.05105452
   0.29794698  0.33680469  0.14912624
   0.79794698  0.08680469  0.14912624
   0.13191209  0.08652480  0.24642528
   0.63197770  0.33621800  0.24634914
   0.46595949  0.08631513  0.34494148
   0.96614317  0.33567022  0.34471119
   0.46461365  0.33680469  0.05105452
   0.96461365  0.08680469  0.05105452
   0.29794698  0.08680469  0.14912624
   0.79794698  0.33680469  0.14912624
   0.13228721  0.33654629  0.24627104
   0.63185343  0.08624909  0.24662923
   0.46607849  0.33609083  0.34512511
   0.96589957  0.08633640  0.34481448
   0.21461365  0.96180469  0.05105452
   0.71461365  0.71180469  0.05105452
   0.04794698  0.71180469  0.14912624
   0.54794698  0.96180469  0.14912624
   0.38085120  0.71128589  0.24809579
   0.88216894  0.96184559  0.24616660
   0.21606658  0.96292768  0.34417880
   0.71536301  0.71064653  0.34699712
   0.21461365  0.71180469  0.05105452
   0.71461365  0.96180469  0.05105452
   0.04794698  0.96180469  0.14912624
   0.54794698  0.71180469  0.14912624
   0.38240343  0.96124491  0.24647707
   0.88177996  0.71160255  0.24681561
   0.21447251  0.71159019  0.34787815
   0.71584681  0.96111899  0.34509007
   0.46461365  0.58680469  0.05105452
   0.96461365  0.83680469  0.05105452
   0.29794698  0.83680469  0.14912624
   0.79794698  0.58680469  0.14912624
   0.13283936  0.58724599  0.24708067
   0.63250398  0.83632363  0.24688379
   0.46747354  0.58516013  0.34565760
   0.96309090  0.83684956  0.34416631
   0.46461365  0.83680469  0.05105452
   0.96461365  0.58680469  0.05105452
   0.29794698  0.58680469  0.14912624
   0.79794698  0.83680469  0.14912624
   0.13277668  0.83577723  0.24743684
   0.63238415  0.58695492  0.24731928
   0.46723351  0.83608612  0.34492405
   0.96307915  0.58473249  0.34360460
Direct configuration=    11
   0.11324101  0.64967797  0.46488331
   0.29086697  0.65248637  0.46327478
   0.20100019  0.70719989  0.45537253
   0.21461365  0.46180469  0.05105452
   0.71461365  0.21180469  0.05105452
   0.04794698  0.21180469  0.14912624
   0.54794698  0.46180469  0.14912624
   0.38205753  0.21143424  0.24665767
   0.88213421  0.46103710  0.24591418
   0.21652964  0.45970919  0.34421930
   0.71604838  0.21071025  0.34487177
   0.21461365  0.21180469  0.05105452
   0.71461365  0.46180469  0.05105452
   0.04794698  0.46180469  0.14912624
   0.54794698  0.21180469  0.14912624
   0.38275214  0.46158660  0.24669957
   0.88203587  0.21146349  0.24660383
   0.21609396  0.21109884  0.34512230
   0.71571221  0.46044057  0.34503138
   0.46461365  0.08680469  0.05105452
   0.96461365  0.33680469  0.05105452
   0.29794698  0.33680469  0.14912624
   0.79794698  0.08680469  0.14912624
   0.13191511  0.08653068  0.24643406
   0.63199528  0.33625329  0.24640005
   0.46598154  0.08629069  0.34494153
   0.96613042  0.33576155  0.34471544
   0.46461365  0.33680469  0.05105452
   0.96461365  0.08680469  0.05105452
   0.29794698  0.08680469  0.14912624
   0.79794698  0.33680469  0.14912624
   0.13228871  0.33654656  0.24629931
   0.63188114  0.08625364  0.24664031
   0.46611265  0.33609774  0.34513813
   0.96589404  0.08629842  0.34481633
   0.21461365  0.96180469  0.05105452
   0.71461365  0.71180469  0.05105452
   0.04794698  0.71180469  0.14912624
   0.54794698  0.96180469  0.14912624
   0.38088652  0.71130641  0.24806248
   0.88217362  0.96184629  0.24619911
   0.21608096  0.96286759  0.34417747
   0.71536077  0.71068484  0.34690293
   0.21461365  0.71180469  0.05105452
   0.71461365  0.96180469  0.05105452
   0.04794698  0.96180469  0.14912624
   0.54794698  0.71180469  0.14912624
   0.38240137  0.96123227  0.24651336
   0.88179481  0.71160769  0.24680418
   0.21449567  0.71158217  0.34786447
   0.71584169  0.96109721  0.34510426
   0.46461365  0.58680469  0.05105452
   0.96461365  0.83680469  0.05105452
   0.29794698  0.83680469  0.14912624
   0.79794698  0.58680469  0.14912624
   0.13280777  0.58721544  0.24710888
   0.63247846  0.83631877  0.24687569
   0.46743885  0.58516648  0.34557823
   0.96311548  0.83682826  0.34417810
   0.46461365  0.83680469  0.05105452
   0.96461365  0.58680469  0.05105452
   0.29794698  0.58680469  0.14912624
   0.79794698  0.83680469  0.14912624
   0.13273160  0.83580128  0.24744695
   0.63241115  0.58692529  0.24726243
   0.46723437  0.83613254  0.34493290
   0.96310449  0.58474987  0.34362481
Direct configuration=    12
   0.11315623  0.64983608  0.46476671
   0.29133979  0.65236854  0.46337037
   0.20058407  0.70705754  0.45565000
   0.21461365  0.46180469  0.05105452
   0.71461365  0.21180469  0.05105452
   0.04794698  0.21180469  0.14912624
   0.54794698  0.46180469  0.14912624
   0.38209104  0.21146524  0.24673071
   0.88200179  0.46110088  0.24608140
   0.21645413  0.45983198  0.34424974
   0.71601939  0.21086643  0.34485327
   0.21461365  0.21180469  0.05105452
   0.71461365  0.46180469  0.05105452
   0.04794698  0.46180469  0.14912624
   0.54794698  0.21180469  0.14912624
   0.38268730  0.46159807  0.24666591
   0.88207201  0.21146223  0.24663594
   0.21616310  0.21119988  0.34513632
   0.71583254  0.46032937  0.34513528
   0.46461365  0.08680469  0.05105452
   0.96461365  0.33680469  0.05105452
   0.29794698  0.33680469  0.14912624
   0.79794698  0.08680469  0.14912624
   0.13192419  0.08654830  0.24646039
   0.63204804  0.33635916  0.24655279
   0.46604770  0.08621738  0.34494165
   0.96609216  0.33603554  0.34472819
   0.46461365  0.33680469  0.05105452
   0.96461365  0.08680469  0.05105452
   0.29794698  0.08680469  0.14912624
   0.79794698  0.33680469  0.14912624
   0.13229319  0.33654737  0.24638413
   0.63196425  0.08626732  0.24667353
   0.46621515  0.33611848  0.34517718
   0.96587747  0.08618448  0.34482187
   0.21461365  0.96180469  0.05105452
   0.71461365  0.71180469  0.05105452
   0.04794698  0.71180469  0.14912624
   0.54794698  0.96180469  0.14912624
   0.38099248  0.71136796  0.24796254
   0.88218767  0.96184840  0.24629665
   0.21612411  0.96268734  0.34417348
   0.71535404  0.71079978  0.34662035
   0.21461365  0.71180469  0.05105452
   0.71461365  0.96180469  0.05105452
   0.04794698  0.96180469  0.14912624
   0.54794698  0.71180469  0.14912624
   0.38239519  0.96119433  0.24662226
   0.88183935  0.71162312  0.24676990
   0.21456517  0.71155810  0.34782342
   0.71582635  0.96103188  0.34514682
   0.46461365  0.58680469  0.05105452
   0.96461365  0.83680469  0.05105452
   0.29794698  0.83680469  0.14912624
   0.79794698  0.58680469  0.14912624
   0.13271298  0.58712381  0.24719352
   0.63240190  0.83630422  0.24685137
   0.46733479  0.58518553  0.34534010
   0.96318925  0.83676438  0.34421348
   0.46461365  0.83680469  0.05105452
   0.96461365  0.58680469  0.05105452
   0.29794698  0.58680469  0.14912624
   0.79794698  0.83680469  0.14912624
   0.13259634  0.83587344  0.24747731
   0.63249215  0.58683640  0.24709189
   0.46723693  0.83627179  0.34495944
   0.96318050  0.58480200  0.34368542
Direct configuration=    13
   0.11313940  0.64986746  0.46474356
   0.29143364  0.65234515  0.46338934
   0.20050147  0.70702928  0.45570507
   0.21461365  0.46180469  0.05105452
   0.71461365  0.21180469  0.05105452
   0.04794698  0.21180469  0.14912624
   0.54794698  0.46180469  0.14912624
   0.38209769  0.21147139  0.24674520
   0.88197551  0.46111354  0.24611460
   0.21643914  0.45985636  0.34425578
   0.71601364  0.21089743  0.34484960
   0.21461365  0.21180469  0.05105452
   0.71461365  0.46180469  0.05105452
   0.04794698  0.46180469  0.14912624
   0.54794698  0.21180469  0.14912624
   0.38267444  0.46160035  0.24665923
   0.88207918  0.21146198  0.24664231
   0.21617682  0.21121994  0.34513910
   0.71585642  0.46030730  0.34515591
   0.46461365  0.08680469  0.05105452
   0.96461365  0.33680469  0.05105452
   0.29794698  0.33680469  0.14912624
   0.79794698  0.08680469  0.14912624
   0.13192599  0.08655180  0.24646561
   0.63205852  0.33638018  0.24658311
   0.46606083  0.08620283  0.34494168
   0.96608456  0.33608993  0.34473072
   0.46461365  0.33680469  0.05105452
   0.96461365  0.08680469  0.05105452
   0.29794698  0.08680469  0.14912624
   0.79794698  0.33680469  0.14912624
   0.13229408  0.33654753  0.24640097
   0.63198075  0.08627003  0.24668012
   0.46623549  0.33612260  0.34518493
   0.96587417  0.08616186  0.34482297
   0.21461365  0.96180469  0.05105452
   0.71461365  0.71180469  0.05105452
   0.04794698  0.71180469  0.14912624
   0.54794698  0.96180469  0.14912624
   0.38101351  0.71138017  0.24794271
   0.88219046  0.96184882  0.24631602
   0.21613268  0.96265156  0.34417269
   0.71535270  0.71082259  0.34656427
   0.21461365  0.71180469  0.05105452
   0.71461365  0.96180469  0.05105452
   0.04794698  0.96180469  0.14912624
   0.54794698  0.71180469  0.14912624
   0.38239397  0.96118680  0.24664387
   0.88184819  0.71162618  0.24676309
   0.21457896  0.71155333  0.34781528
   0.71582330  0.96101891  0.34515527
   0.46461365  0.58680469  0.05105452
   0.96461365  0.83680469  0.05105452
   0.29794698  0.83680469  0.14912624
   0.79794698  0.58680469  0.14912624
   0.13269417  0.58710562  0.24721032
   0.63238670  0.83630133  0.24684655
   0.46731413  0.58518931  0.34529283
   0.96320389  0.83675170  0.34422050
   0.46461365  0.83680469  0.05105452
   0.96461365  0.58680469  0.05105452
   0.29794698  0.58680469  0.14912624
   0.79794698  0.83680469  0.14912624
   0.13256950  0.83588777  0.24748333
   0.63250823  0.58681875  0.24705804
   0.46723744  0.83629944  0.34496471
   0.96319559  0.58481234  0.34369745
Direct configuration=    14
   0.11304545  0.64983546  0.46471071
   0.29147160  0.65233311  0.46342775
   0.20054803  0.70702703  0.45580943
   0.21461365  0.46180469  0.05105452
   0.71461365  0.21180469  0.05105452
   0.04794698  0.21180469  0.14912624
   0.54794698  0.46180469  0.14912624
   0.38211522  0.21148307  0.24676912
   0.88193689  0.46113292  0.24616503
   0.21641038  0.45989076  0.34426549
   0.71601614  0.21093394  0.34484957
   0.21461365  0.21180469  0.05105452
   0.71461365  0.46180469  0.05105452
   0.04794698  0.46180469  0.14912624
   0.54794698  0.21180469  0.14912624
   0.38265049  0.46160380  0.24664790
   0.88209876  0.21146388  0.24665315
   0.21619443  0.21124948  0.34514841
   0.71590066  0.46028122  0.34518979
   0.46461365  0.08680469  0.05105452
   0.96461365  0.33680469  0.05105452
   0.29794698  0.33680469  0.14912624
   0.79794698  0.08680469  0.14912624
   0.13193750  0.08656369  0.24647639
   0.63207013  0.33642088  0.24663027
   0.46608649  0.08618785  0.34494795
   0.96607971  0.33616289  0.34474177
   0.46461365  0.33680469  0.05105452
   0.96461365  0.08680469  0.05105452
   0.29794698  0.08680469  0.14912624
   0.79794698  0.33680469  0.14912624
   0.13228448  0.33654739  0.24642634
   0.63201243  0.08627867  0.24669101
   0.46625784  0.33612276  0.34519901
   0.96587386  0.08613835  0.34482670
   0.21461365  0.96180469  0.05105452
   0.71461365  0.71180469  0.05105452
   0.04794698  0.71180469  0.14912624
   0.54794698  0.96180469  0.14912624
   0.38104260  0.71139657  0.24790764
   0.88218355  0.96184786  0.24634941
   0.21614255  0.96259982  0.34417802
   0.71536572  0.71084833  0.34646087
   0.21461365  0.71180469  0.05105452
   0.71461365  0.96180469  0.05105452
   0.04794698  0.96180469  0.14912624
   0.54794698  0.71180469  0.14912624
   0.38239255  0.96117652  0.24667506
   0.88186261  0.71162850  0.24675257
   0.21459727  0.71155279  0.34781426
   0.71582036  0.96101596  0.34516975
   0.46461365  0.58680469  0.05105452
   0.96461365  0.83680469  0.05105452
   0.29794698  0.83680469  0.14912624
   0.79794698  0.58680469  0.14912624
   0.13267108  0.58708997  0.24723489
   0.63236637  0.83629858  0.24683749
   0.46727283  0.58519672  0.34520964
   0.96324558  0.83673495  0.34423299
   0.46461365  0.83680469  0.05105452
   0.96461365  0.58680469  0.05105452
   0.29794698  0.58680469  0.14912624
   0.79794698  0.83680469  0.14912624
   0.13252828  0.83590164  0.24748734
   0.63253024  0.58679239  0.24700076
   0.46722311  0.83635694  0.34496569
   0.96323082  0.58484411  0.34372292
Direct configuration=    15
   0.11280486  0.64975350  0.46462658
   0.29156882  0.65230228  0.46352611
   0.20066726  0.70702128  0.45607669
   0.21461365  0.46180469  0.05105452
   0.71461365  0.21180469  0.05105452
   0.04794698  0.21180469  0.14912624
   0.54794698  0.46180469  0.14912624
   0.38216013  0.21151299  0.24683036
   0.88183802  0.46118254  0.24629417
   0.21633673  0.45997885  0.34429034
   0.71602254  0.21102745  0.34484949
   0.21461365  0.21180469  0.05105452
   0.71461365  0.46180469  0.05105452
   0.04794698  0.46180469  0.14912624
   0.54794698  0.21180469  0.14912624
   0.38258918  0.46161263  0.24661889
   0.88214890  0.21146875  0.24668092
   0.21623951  0.21132511  0.34517225
   0.71601396  0.46021443  0.34527656
   0.46461365  0.08680469  0.05105452
   0.96461365  0.33680469  0.05105452
   0.29794698  0.33680469  0.14912624
   0.79794698  0.08680469  0.14912624
   0.13196698  0.08659414  0.24650398
   0.63209988  0.33652509  0.24675104
   0.46615222  0.08614950  0.34496399
   0.96606729  0.33634974  0.34477006
   0.46461365  0.33680469  0.05105452
   0.96461365  0.08680469  0.05105452
   0.29794698  0.08680469  0.14912624
   0.79794698  0.33680469  0.14912624
   0.13225987  0.33654703  0.24649131
   0.63209356  0.08630079  0.24671889
   0.46631507  0.33612317  0.34523507
   0.96587304  0.08607815  0.34483627
   0.21461365  0.96180469  0.05105452
   0.71461365  0.71180469  0.05105452
   0.04794698  0.71180469  0.14912624
   0.54794698  0.96180469  0.14912624
   0.38111708  0.71143857  0.24781785
   0.88216585  0.96184541  0.24643492
   0.21616781  0.96246732  0.34419168
   0.71539906  0.71091423  0.34619610
   0.21461365  0.71180469  0.05105452
   0.71461365  0.96180469  0.05105452
   0.04794698  0.96180469  0.14912624
   0.54794698  0.71180469  0.14912624
   0.38238891  0.96115017  0.24675491
   0.88189951  0.71163443  0.24672563
   0.21464417  0.71155140  0.34781164
   0.71581284  0.96100842  0.34520681
   0.46461365  0.58680469  0.05105452
   0.96461365  0.83680469  0.05105452
   0.29794698  0.83680469  0.14912624
   0.79794698  0.58680469  0.14912624
   0.13261196  0.58704989  0.24729782
   0.63231432  0.83629152  0.24681428
   0.46716708  0.58521569  0.34499661
   0.96335235  0.83669206  0.34426499
   0.46461365  0.83680469  0.05105452
   0.96461365  0.58680469  0.05105452
   0.29794698  0.58680469  0.14912624
   0.79794698  0.83680469  0.14912624
   0.13242274  0.83593718  0.24749761
   0.63258659  0.58672486  0.24685408
   0.46718640  0.83650421  0.34496821
   0.96332103  0.58492545  0.34378814
Direct configuration=    16
   0.11232369  0.64958959  0.46445832
   0.29176326  0.65224061  0.46372283
   0.20090571  0.70700977  0.45661121
   0.21461365  0.46180469  0.05105452
   0.71461365  0.21180469  0.05105452
   0.04794698  0.21180469  0.14912624
   0.54794698  0.46180469  0.14912624
   0.38224994  0.21157282  0.24695285
   0.88164026  0.46128179  0.24655246
   0.21618943  0.46015504  0.34434005
   0.71603534  0.21121445  0.34484933
   0.21461365  0.21180469  0.05105452
   0.71461365  0.46180469  0.05105452
   0.04794698  0.46180469  0.14912624
   0.54794698  0.21180469  0.14912624
   0.38246655  0.46163029  0.24656087
   0.88224917  0.21147848  0.24673646
   0.21632968  0.21147639  0.34521994
   0.71624056  0.46008086  0.34545010
   0.46461365  0.08680469  0.05105452
   0.96461365  0.33680469  0.05105452
   0.29794698  0.33680469  0.14912624
   0.79794698  0.08680469  0.14912624
   0.13202592  0.08665504  0.24655917
   0.63215938  0.33673352  0.24699259
   0.46628368  0.08607280  0.34499609
   0.96604245  0.33672345  0.34482664
   0.46461365  0.33680469  0.05105452
   0.96461365  0.08680469  0.05105452
   0.29794698  0.08680469  0.14912624
   0.79794698  0.33680469  0.14912624
   0.13221067  0.33654632  0.24662124
   0.63225582  0.08634502  0.24677464
   0.46642952  0.33612399  0.34530718
   0.96587140  0.08595775  0.34485541
   0.21461365  0.96180469  0.05105452
   0.71461365  0.71180469  0.05105452
   0.04794698  0.71180469  0.14912624
   0.54794698  0.96180469  0.14912624
   0.38126605  0.71152256  0.24763826
   0.88213045  0.96184050  0.24660594
   0.21621835  0.96220232  0.34421899
   0.71546572  0.71104605  0.34566656
   0.21461365  0.71180469  0.05105452
   0.71461365  0.96180469  0.05105452
   0.04794698  0.96180469  0.14912624
   0.54794698  0.71180469  0.14912624
   0.38238163  0.96109747  0.24691462
   0.88197333  0.71164630  0.24667176
   0.21473796  0.71154863  0.34780642
   0.71579779  0.96099333  0.34528094
   0.46461365  0.58680469  0.05105452
   0.96461365  0.83680469  0.05105452
   0.29794698  0.83680469  0.14912624
   0.79794698  0.58680469  0.14912624
   0.13249373  0.58696972  0.24742367
   0.63221022  0.83627742  0.24676786
   0.46695558  0.58525363  0.34457055
   0.96356589  0.83660628  0.34432897
   0.46461365  0.83680469  0.05105452
   0.96461365  0.58680469  0.05105452
   0.29794698  0.58680469  0.14912624
   0.79794698  0.83680469  0.14912624
   0.13221166  0.83600826  0.24751815
   0.63269928  0.58658982  0.24656072
   0.46711298  0.83679874  0.34497325
   0.96350145  0.58508813  0.34391859
Direct configuration=    17
   0.11265298  0.64970176  0.46457347
   0.29163020  0.65228281  0.46358820
   0.20074253  0.70701765  0.45624541
   0.21461365  0.46180469  0.05105452
   0.71461365  0.21180469  0.05105452
   0.04794698  0.21180469  0.14912624
   0.54794698  0.46180469  0.14912624
   0.38218848  0.21153187  0.24686903
   0.88177559  0.46121387  0.24637570
   0.21629023  0.46003446  0.34430603
   0.71602658  0.21108647  0.34484944
   0.21461365  0.21180469  0.05105452
   0.71461365  0.46180469  0.05105452
   0.04794698  0.46180469  0.14912624
   0.54794698  0.21180469  0.14912624
   0.38255047  0.46161821  0.24660058
   0.88218055  0.21147182  0.24669845
   0.21626797  0.21137286  0.34518730
   0.71608549  0.46017227  0.34533134
   0.46461365  0.08680469  0.05105452
   0.96461365  0.33680469  0.05105452
   0.29794698  0.33680469  0.14912624
   0.79794698  0.08680469  0.14912624
   0.13198558  0.08661337  0.24652140
   0.63211866  0.33659088  0.24682729
   0.46619372  0.08612529  0.34497412
   0.96605945  0.33646770  0.34478792
   0.46461365  0.33680469  0.05105452
   0.96461365  0.08680469  0.05105452
   0.29794698  0.08680469  0.14912624
   0.79794698  0.33680469  0.14912624
   0.13224434  0.33654681  0.24653232
   0.63214478  0.08631475  0.24673649
   0.46635119  0.33612343  0.34525783
   0.96587252  0.08604015  0.34484231
   0.21461365  0.96180469  0.05105452
   0.71461365  0.71180469  0.05105452
   0.04794698  0.71180469  0.14912624
   0.54794698  0.96180469  0.14912624
   0.38116410  0.71146508  0.24776116
   0.88215468  0.96184386  0.24648890
   0.21618376  0.96238367  0.34420030
   0.71542010  0.71095584  0.34602895
   0.21461365  0.71180469  0.05105452
   0.71461365  0.96180469  0.05105452
   0.04794698  0.96180469  0.14912624
   0.54794698  0.71180469  0.14912624
   0.38238661  0.96113353  0.24680532
   0.88192281  0.71163818  0.24670863
   0.21467377  0.71155053  0.34780999
   0.71580809  0.96100366  0.34523021
   0.46461365  0.58680469  0.05105452
   0.96461365  0.83680469  0.05105452
   0.29794698  0.83680469  0.14912624
   0.79794698  0.58680469  0.14912624
   0.13257464  0.58702458  0.24733754
   0.63228146  0.83628707  0.24679963
   0.46710032  0.58522766  0.34486212
   0.96341975  0.83666498  0.34428518
   0.46461365  0.83680469  0.05105452
   0.96461365  0.58680469  0.05105452
   0.29794698  0.58680469  0.14912624
   0.79794698  0.83680469  0.14912624
   0.13235611  0.83595962  0.24750409
   0.63262216  0.58668224  0.24676148
   0.46716323  0.83659718  0.34496980
   0.96337798  0.58497680  0.34382932
Direct configuration=    18
   0.11272861  0.64964110  0.46455375
   0.29148886  0.65224567  0.46363100
   0.20077148  0.70708427  0.45629006
   0.21461365  0.46180469  0.05105452
   0.71461365  0.21180469  0.05105452
   0.04794698  0.21180469  0.14912624
   0.54794698  0.46180469  0.14912624
   0.38220591  0.21153443  0.24687067
   0.88179091  0.46121079  0.24637614
   0.21629394  0.46002946  0.34431487
   0.71605848  0.21105906  0.34486523
   0.21461365  0.21180469  0.05105452
   0.71461365  0.46180469  0.05105452
   0.04794698  0.46180469  0.14912624
   0.54794698  0.21180469  0.14912624
   0.38253191  0.46161062  0.24659529
   0.88219529  0.21148413  0.24670314
   0.21625999  0.21136295  0.34520085
   0.71608558  0.46021776  0.34534802
   0.46461365  0.08680469  0.05105452
   0.96461365  0.33680469  0.05105452
   0.29794698  0.33680469  0.14912624
   0.79794698  0.08680469  0.14912624
   0.13200754  0.08662540  0.24652949
   0.63211219  0.33660143  0.24682717
   0.46620522  0.08614895  0.34498933
   0.96608640  0.33644584  0.34481055
   0.46461365  0.33680469  0.05105452
   0.96461365  0.08680469  0.05105452
   0.29794698  0.08680469  0.14912624
   0.79794698  0.33680469  0.14912624
   0.13222607  0.33654831  0.24653177
   0.63215570  0.08632997  0.24673835
   0.46633092  0.33612476  0.34526850
   0.96588846  0.08607170  0.34485011
   0.21461365  0.96180469  0.05105452
   0.71461365  0.71180469  0.05105452
   0.04794698  0.71180469  0.14912624
   0.54794698  0.96180469  0.14912624
   0.38114933  0.71147013  0.24774758
   0.88212772  0.96183963  0.24649514
   0.21617281  0.96240011  0.34421755
   0.71543942  0.71092840  0.34597554
   0.21461365  0.71180469  0.05105452
   0.71461365  0.96180469  0.05105452
   0.04794698  0.96180469  0.14912624
   0.54794698  0.71180469  0.14912624
   0.38238262  0.96115441  0.24680097
   0.88193703  0.71163468  0.24670258
   0.21468830  0.71156752  0.34783312
   0.71581724  0.96103335  0.34523713
   0.46461365  0.58680469  0.05105452
   0.96461365  0.83680469  0.05105452
   0.29794698  0.83680469  0.14912624
   0.79794698  0.58680469  0.14912624
   0.13258954  0.58704975  0.24733499
   0.63228368  0.83629704  0.24679005
   0.46709531  0.58523844  0.34482306
   0.96345760  0.83666286  0.34429636
   0.46461365  0.83680469  0.05105452
   0.96461365  0.58680469  0.05105452
   0.29794698  0.58680469  0.14912624
   0.79794698  0.83680469  0.14912624
   0.13236050  0.83594746  0.24749685
   0.63261169  0.58667661  0.24674744
   0.46714049  0.83660562  0.34495912
   0.96340390  0.58502894  0.34385304
Direct configuration=    19
   0.11295550  0.64945910  0.46449459
   0.29106483  0.65213424  0.46375939
   0.20085832  0.70728414  0.45642401
   0.21461365  0.46180469  0.05105452
   0.71461365  0.21180469  0.05105452
   0.04794698  0.21180469  0.14912624
   0.54794698  0.46180469  0.14912624
   0.38225819  0.21154212  0.24687562
   0.88183688  0.46120154  0.24637744
   0.21630508  0.46001445  0.34434136
   0.71615418  0.21097683  0.34491259
   0.21461365  0.21180469  0.05105452
   0.71461365  0.46180469  0.05105452
   0.04794698  0.46180469  0.14912624
   0.54794698  0.21180469  0.14912624
   0.38247625  0.46158787  0.24657944
   0.88223952  0.21152106  0.24671718
   0.21623603  0.21133321  0.34524147
   0.71608586  0.46035425  0.34539804
   0.46461365  0.08680469  0.05105452
   0.96461365  0.33680469  0.05105452
   0.29794698  0.33680469  0.14912624
   0.79794698  0.08680469  0.14912624
   0.13207340  0.08666152  0.24655378
   0.63209276  0.33663306  0.24682682
   0.46623973  0.08621995  0.34503494
   0.96616725  0.33638025  0.34487845
   0.46461365  0.33680469  0.05105452
   0.96461365  0.08680469  0.05105452
   0.29794698  0.08680469  0.14912624
   0.79794698  0.33680469  0.14912624
   0.13217126  0.33655282  0.24653011
   0.63218848  0.08637562  0.24674392
   0.46627011  0.33612874  0.34530052
   0.96593628  0.08616638  0.34487349
   0.21461365  0.96180469  0.05105452
   0.71461365  0.71180469  0.05105452
   0.04794698  0.71180469  0.14912624
   0.54794698  0.96180469  0.14912624
   0.38110501  0.71148530  0.24770684
   0.88204686  0.96182693  0.24651384
   0.21613995  0.96244943  0.34426931
   0.71549740  0.71084606  0.34581530
   0.21461365  0.71180469  0.05105452
   0.71461365  0.96180469  0.05105452
   0.04794698  0.96180469  0.14912624
   0.54794698  0.71180469  0.14912624
   0.38237064  0.96121704  0.24678792
   0.88197967  0.71162420  0.24668443
   0.21473189  0.71161850  0.34790248
   0.71584470  0.96112244  0.34525790
   0.46461365  0.58680469  0.05105452
   0.96461365  0.83680469  0.05105452
   0.29794698  0.83680469  0.14912624
   0.79794698  0.58680469  0.14912624
   0.13263425  0.58712527  0.24732735
   0.63229036  0.83632694  0.24676130
   0.46708029  0.58527077  0.34470588
   0.96357114  0.83665650  0.34432989
   0.46461365  0.83680469  0.05105452
   0.96461365  0.58680469  0.05105452
   0.29794698  0.58680469  0.14912624
   0.79794698  0.83680469  0.14912624
   0.13237367  0.83591098  0.24747513
   0.63258030  0.58665974  0.24670532
   0.46707227  0.83663096  0.34492708
   0.96348166  0.58518537  0.34392421
Direct configuration=    20
   0.11340927  0.64909511  0.46437627
   0.29021678  0.65191138  0.46401618
   0.20103202  0.70768389  0.45669191
   0.21461365  0.46180469  0.05105452
   0.71461365  0.21180469  0.05105452
   0.04794698  0.21180469  0.14912624
   0.54794698  0.46180469  0.14912624
   0.38236276  0.21155749  0.24688552
   0.88192880  0.46118306  0.24638006
   0.21632734  0.45998444  0.34439436
   0.71634560  0.21081237  0.34500733
   0.21461365  0.21180469  0.05105452
   0.71461365  0.46180469  0.05105452
   0.04794698  0.46180469  0.14912624
   0.54794698  0.21180469  0.14912624
   0.38236492  0.46154236  0.24654773
   0.88232797  0.21159491  0.24674527
   0.21618813  0.21127372  0.34532272
   0.71608643  0.46062721  0.34549810
   0.46461365  0.08680469  0.05105452
   0.96461365  0.33680469  0.05105452
   0.29794698  0.33680469  0.14912624
   0.79794698  0.08680469  0.14912624
   0.13220512  0.08673376  0.24660234
   0.63205391  0.33669632  0.24682613
   0.46630875  0.08636194  0.34512616
   0.96632896  0.33624907  0.34501425
   0.46461365  0.33680469  0.05105452
   0.96461365  0.08680469  0.05105452
   0.29794698  0.08680469  0.14912624
   0.79794698  0.33680469  0.14912624
   0.13206165  0.33656185  0.24652679
   0.63225402  0.08646693  0.24675508
   0.46614850  0.33613672  0.34536455
   0.96603190  0.08635573  0.34492025
   0.21461365  0.96180469  0.05105452
   0.71461365  0.71180469  0.05105452
   0.04794698  0.71180469  0.14912624
   0.54794698  0.96180469  0.14912624
   0.38101638  0.71151562  0.24762535
   0.88188512  0.96180154  0.24655125
   0.21607424  0.96254807  0.34437282
   0.71561335  0.71068138  0.34549481
   0.21461365  0.71180469  0.05105452
   0.71461365  0.96180469  0.05105452
   0.04794698  0.96180469  0.14912624
   0.54794698  0.71180469  0.14912624
   0.38234669  0.96134230  0.24676181
   0.88206496  0.71160323  0.24664814
   0.21481906  0.71172045  0.34804120
   0.71589961  0.96130062  0.34529944
   0.46461365  0.58680469  0.05105452
   0.96461365  0.83680469  0.05105452
   0.29794698  0.83680469  0.14912624
   0.79794698  0.58680469  0.14912624
   0.13272366  0.58727629  0.24731206
   0.63230370  0.83638675  0.24670381
   0.46705024  0.58533544  0.34447152
   0.96379823  0.83664377  0.34439694
   0.46461365  0.83680469  0.05105452
   0.96461365  0.58680469  0.05105452
   0.29794698  0.58680469  0.14912624
   0.79794698  0.83680469  0.14912624
   0.13240000  0.83583801  0.24743169
   0.63251752  0.58662600  0.24662108
   0.46693583  0.83668164  0.34486300
   0.96363717  0.58549822  0.34406654
Direct configuration=    21
   0.11313313  0.64931661  0.46444827
   0.29073286  0.65204700  0.46385991
   0.20092632  0.70744062  0.45652888
   0.21461365  0.46180469  0.05105452
   0.71461365  0.21180469  0.05105452
   0.04794698  0.21180469  0.14912624
   0.54794698  0.46180469  0.14912624
   0.38229913  0.21154813  0.24687950
   0.88187286  0.46119431  0.24637847
   0.21631379  0.46000271  0.34436211
   0.71622911  0.21091245  0.34494968
   0.21461365  0.21180469  0.05105452
   0.71461365  0.46180469  0.05105452
   0.04794698  0.46180469  0.14912624
   0.54794698  0.21180469  0.14912624
   0.38243267  0.46157005  0.24656702
   0.88227414  0.21154997  0.24672818
   0.21621728  0.21130992  0.34527327
   0.71608608  0.46046110  0.34543721
   0.46461365  0.08680469  0.05105452
   0.96461365  0.33680469  0.05105452
   0.29794698  0.33680469  0.14912624
   0.79794698  0.08680469  0.14912624
   0.13212496  0.08668980  0.24657279
   0.63207755  0.33665782  0.24682655
   0.46626675  0.08627553  0.34507065
   0.96623056  0.33632890  0.34493161
   0.46461365  0.33680469  0.05105452
   0.96461365  0.08680469  0.05105452
   0.29794698  0.08680469  0.14912624
   0.79794698  0.33680469  0.14912624
   0.13212835  0.33655636  0.24652881
   0.63221414  0.08641136  0.24674829
   0.46622251  0.33613186  0.34532558
   0.96597371  0.08624050  0.34489179
   0.21461365  0.96180469  0.05105452
   0.71461365  0.71180469  0.05105452
   0.04794698  0.71180469  0.14912624
   0.54794698  0.96180469  0.14912624
   0.38107032  0.71149717  0.24767494
   0.88198355  0.96181699  0.24652848
   0.21611423  0.96248805  0.34430983
   0.71554279  0.71078159  0.34568984
   0.21461365  0.71180469  0.05105452
   0.71461365  0.96180469  0.05105452
   0.04794698  0.96180469  0.14912624
   0.54794698  0.71180469  0.14912624
   0.38236126  0.96126607  0.24677770
   0.88201306  0.71161599  0.24667023
   0.21476601  0.71165841  0.34795678
   0.71586619  0.96119219  0.34527416
   0.46461365  0.58680469  0.05105452
   0.96461365  0.83680469  0.05105452
   0.29794698  0.83680469  0.14912624
   0.79794698  0.58680469  0.14912624
   0.13266925  0.58718438  0.24732137
   0.63229558  0.83635035  0.24673879
   0.46706852  0.58529609  0.34461414
   0.96366004  0.83665152  0.34435613
   0.46461365  0.83680469  0.05105452
   0.96461365  0.58680469  0.05105452
   0.29794698  0.58680469  0.14912624
   0.79794698  0.83680469  0.14912624
   0.13238397  0.83588241  0.24745813
   0.63255573  0.58664653  0.24667234
   0.46701886  0.83665080  0.34490200
   0.96354254  0.58530784  0.34397992
Direct configuration=    22
   0.11322875  0.64929346  0.46442288
   0.29070197  0.65196394  0.46391295
   0.20080125  0.70749725  0.45655967
   0.21461365  0.46180469  0.05105452
   0.71461365  0.21180469  0.05105452
   0.04794698  0.21180469  0.14912624
   0.54794698  0.46180469  0.14912624
   0.38231465  0.21155145  0.24687984
   0.88189455  0.46119357  0.24637880
   0.21631871  0.45999694  0.34437005
   0.71626181  0.21089239  0.34496690
   0.21461365  0.21180469  0.05105452
   0.71461365  0.46180469  0.05105452
   0.04794698  0.46180469  0.14912624
   0.54794698  0.21180469  0.14912624
   0.38241263  0.46155982  0.24656280
   0.88228451  0.21156218  0.24673277
   0.21621138  0.21130016  0.34528802
   0.71608593  0.46050302  0.34544916
   0.46461365  0.08680469  0.05105452
   0.96461365  0.33680469  0.05105452
   0.29794698  0.33680469  0.14912624
   0.79794698  0.08680469  0.14912624
   0.13214319  0.08670140  0.24658073
   0.63207194  0.33666637  0.24682506
   0.46627601  0.08630017  0.34508624
   0.96625456  0.33630958  0.34495477
   0.46461365  0.33680469  0.05105452
   0.96461365  0.08680469  0.05105452
   0.29794698  0.08680469  0.14912624
   0.79794698  0.33680469  0.14912624
   0.13211286  0.33655945  0.24652665
   0.63222152  0.08642830  0.24675011
   0.46620431  0.33613401  0.34533469
   0.96599255  0.08627248  0.34490102
   0.21461365  0.96180469  0.05105452
   0.71461365  0.71180469  0.05105452
   0.04794698  0.71180469  0.14912624
   0.54794698  0.96180469  0.14912624
   0.38105266  0.71150534  0.24766538
   0.88196531  0.96181526  0.24653228
   0.21610396  0.96251094  0.34432682
   0.71556054  0.71075879  0.34564314
   0.21461365  0.71180469  0.05105452
   0.71461365  0.96180469  0.05105452
   0.04794698  0.96180469  0.14912624
   0.54794698  0.71180469  0.14912624
   0.38235770  0.96128867  0.24677193
   0.88202907  0.71161150  0.24666534
   0.21478460  0.71167793  0.34798129
   0.71587682  0.96121631  0.34527969
   0.46461365  0.58680469  0.05105452
   0.96461365  0.83680469  0.05105452
   0.29794698  0.83680469  0.14912624
   0.79794698  0.58680469  0.14912624
   0.13268553  0.58720875  0.24731878
   0.63229890  0.83636410  0.24673095
   0.46706621  0.58530636  0.34458205
   0.96369436  0.83665629  0.34436591
   0.46461365  0.83680469  0.05105452
   0.96461365  0.58680469  0.05105452
   0.29794698  0.58680469  0.14912624
   0.79794698  0.83680469  0.14912624
   0.13239536  0.83587432  0.24745103
   0.63254165  0.58664041  0.24666195
   0.46700151  0.83665818  0.34488836
   0.96357602  0.58535343  0.34400117
Direct configuration=    23
   0.11328655  0.64927947  0.46440754
   0.29068330  0.65191373  0.46394501
   0.20072565  0.70753148  0.45657828
   0.21461365  0.46180469  0.05105452
   0.71461365  0.21180469  0.05105452
   0.04794698  0.21180469  0.14912624
   0.54794698  0.46180469  0.14912624
   0.38232403  0.21155346  0.24688005
   0.88190767  0.46119312  0.24637899
   0.21632167  0.45999346  0.34437484
   0.71628158  0.21088026  0.34497731
   0.21461365  0.21180469  0.05105452
   0.71461365  0.46180469  0.05105452
   0.04794698  0.46180469  0.14912624
   0.54794698  0.21180469  0.14912624
   0.38240053  0.46155363  0.24656025
   0.88229077  0.21156956  0.24673554
   0.21620782  0.21129427  0.34529694
   0.71608583  0.46052837  0.34545639
   0.46461365  0.08680469  0.05105452
   0.96461365  0.33680469  0.05105452
   0.29794698  0.33680469  0.14912624
   0.79794698  0.08680469  0.14912624
   0.13215421  0.08670842  0.24658553
   0.63206855  0.33667153  0.24682416
   0.46628161  0.08631506  0.34509566
   0.96626907  0.33629790  0.34496877
   0.46461365  0.33680469  0.05105452
   0.96461365  0.08680469  0.05105452
   0.29794698  0.08680469  0.14912624
   0.79794698  0.33680469  0.14912624
   0.13210350  0.33656133  0.24652535
   0.63222598  0.08643854  0.24675120
   0.46619331  0.33613530  0.34534020
   0.96600394  0.08629181  0.34490659
   0.21461365  0.96180469  0.05105452
   0.71461365  0.71180469  0.05105452
   0.04794698  0.71180469  0.14912624
   0.54794698  0.96180469  0.14912624
   0.38104199  0.71151027  0.24765961
   0.88195428  0.96181421  0.24653458
   0.21609776  0.96252478  0.34433710
   0.71557127  0.71074500  0.34561491
   0.21461365  0.71180469  0.05105452
   0.71461365  0.96180469  0.05105452
   0.04794698  0.96180469  0.14912624
   0.54794698  0.71180469  0.14912624
   0.38235555  0.96130233  0.24676844
   0.88203874  0.71160878  0.24666238
   0.21479584  0.71168972  0.34799610
   0.71588324  0.96123089  0.34528303
   0.46461365  0.58680469  0.05105452
   0.96461365  0.83680469  0.05105452
   0.29794698  0.83680469  0.14912624
   0.79794698  0.58680469  0.14912624
   0.13269537  0.58722347  0.24731722
   0.63230090  0.83637241  0.24672620
   0.46706482  0.58531258  0.34456265
   0.96371511  0.83665918  0.34437183
   0.46461365  0.83680469  0.05105452
   0.96461365  0.58680469  0.05105452
   0.29794698  0.58680469  0.14912624
   0.79794698  0.83680469  0.14912624
   0.13240224  0.83586942  0.24744673
   0.63253314  0.58663671  0.24665566
   0.46699102  0.83666265  0.34488011
   0.96359626  0.58538099  0.34401402
Direct configuration=    24
   0.11340215  0.64925148  0.46437684
   0.29064597  0.65181332  0.46400913
   0.20057444  0.70759994  0.45661550
   0.21461365  0.46180469  0.05105452
   0.71461365  0.21180469  0.05105452
   0.04794698  0.21180469  0.14912624
   0.54794698  0.46180469  0.14912624
   0.38234280  0.21155747  0.24688046
   0.88193389  0.46119222  0.24637939
   0.21632761  0.45998649  0.34438444
   0.71632111  0.21085601  0.34499814
   0.21461365  0.21180469  0.05105452
   0.71461365  0.46180469  0.05105452
   0.04794698  0.46180469  0.14912624
   0.54794698  0.21180469  0.14912624
   0.38237631  0.46154125  0.24655515
   0.88230330  0.21158432  0.24674108
   0.21620069  0.21128247  0.34531477
   0.71608564  0.46057905  0.34547084
   0.46461365  0.08680469  0.05105452
   0.96461365  0.33680469  0.05105452
   0.29794698  0.33680469  0.14912624
   0.79794698  0.08680469  0.14912624
   0.13217624  0.08672244  0.24659513
   0.63206176  0.33668186  0.24682237
   0.46629281  0.08634485  0.34511451
   0.96629809  0.33627454  0.34499678
   0.46461365  0.33680469  0.05105452
   0.96461365  0.08680469  0.05105452
   0.29794698  0.08680469  0.14912624
   0.79794698  0.33680469  0.14912624
   0.13208477  0.33656507  0.24652274
   0.63223491  0.08645901  0.24675339
   0.46617131  0.33613790  0.34535122
   0.96602672  0.08633047  0.34491775
   0.21461365  0.96180469  0.05105452
   0.71461365  0.71180469  0.05105452
   0.04794698  0.71180469  0.14912624
   0.54794698  0.96180469  0.14912624
   0.38102064  0.71152015  0.24764806
   0.88193223  0.96181211  0.24653918
   0.21608535  0.96255245  0.34435765
   0.71559273  0.71071743  0.34555845
   0.21461365  0.71180469  0.05105452
   0.71461365  0.96180469  0.05105452
   0.04794698  0.96180469  0.14912624
   0.54794698  0.71180469  0.14912624
   0.38235125  0.96132965  0.24676147
   0.88205809  0.71160335  0.24665647
   0.21481832  0.71171332  0.34802573
   0.71589609  0.96126006  0.34528970
   0.46461365  0.58680469  0.05105452
   0.96461365  0.83680469  0.05105452
   0.29794698  0.83680469  0.14912624
   0.79794698  0.58680469  0.14912624
   0.13271505  0.58725292  0.24731409
   0.63230491  0.83638903  0.24671672
   0.46706202  0.58532500  0.34452385
   0.96375661  0.83666496  0.34438365
   0.46461365  0.83680469  0.05105452
   0.96461365  0.58680469  0.05105452
   0.29794698  0.58680469  0.14912624
   0.79794698  0.83680469  0.14912624
   0.13241599  0.83585963  0.24743814
   0.63251612  0.58662931  0.24664309
   0.46697004  0.83667157  0.34486362
   0.96363675  0.58543611  0.34403970
Direct configuration=    25
   0.11331643  0.64927223  0.46439960
   0.29067365  0.65188778  0.46396159
   0.20068656  0.70754918  0.45658790
   0.21461365  0.46180469  0.05105452
   0.71461365  0.21180469  0.05105452
   0.04794698  0.21180469  0.14912624
   0.54794698  0.46180469  0.14912624
   0.38232888  0.21155450  0.24688016
   0.88191445  0.46119289  0.24637910
   0.21632321  0.45999166  0.34437732
   0.71629180  0.21087399  0.34498270
   0.21461365  0.21180469  0.05105452
   0.71461365  0.46180469  0.05105452
   0.04794698  0.46180469  0.14912624
   0.54794698  0.21180469  0.14912624
   0.38239427  0.46155043  0.24655893
   0.88229401  0.21157337  0.24673697
   0.21620598  0.21129122  0.34530155
   0.71608578  0.46054147  0.34546012
   0.46461365  0.08680469  0.05105452
   0.96461365  0.33680469  0.05105452
   0.29794698  0.33680469  0.14912624
   0.79794698  0.08680469  0.14912624
   0.13215990  0.08671204  0.24658801
   0.63206679  0.33667420  0.24682370
   0.46628451  0.08632276  0.34510053
   0.96627657  0.33629186  0.34497601
   0.46461365  0.33680469  0.05105452
   0.96461365  0.08680469  0.05105452
   0.29794698  0.08680469  0.14912624
   0.79794698  0.33680469  0.14912624
   0.13209866  0.33656229  0.24652467
   0.63222829  0.08644383  0.24675177
   0.46618763  0.33613597  0.34534305
   0.96600983  0.08630181  0.34490948
   0.21461365  0.96180469  0.05105452
   0.71461365  0.71180469  0.05105452
   0.04794698  0.71180469  0.14912624
   0.54794698  0.96180469  0.14912624
   0.38103647  0.71151283  0.24765662
   0.88194858  0.96181366  0.24653577
   0.21609455  0.96253193  0.34434241
   0.71557682  0.71073788  0.34560031
   0.21461365  0.71180469  0.05105452
   0.71461365  0.96180469  0.05105452
   0.04794698  0.96180469  0.14912624
   0.54794698  0.71180469  0.14912624
   0.38235444  0.96130940  0.24676664
   0.88204374  0.71160738  0.24666085
   0.21480165  0.71169582  0.34800376
   0.71588656  0.96123843  0.34528475
   0.46461365  0.58680469  0.05105452
   0.96461365  0.83680469  0.05105452
   0.29794698  0.83680469  0.14912624
   0.79794698  0.58680469  0.14912624
   0.13270045  0.58723108  0.24731641
   0.63230194  0.83637670  0.24672375
   0.46706410  0.58531579  0.34455262
   0.96372584  0.83666068  0.34437488
   0.46461365  0.83680469  0.05105452
   0.96461365  0.58680469  0.05105452
   0.29794698  0.58680469  0.14912624
   0.79794698  0.83680469  0.14912624
   0.13240579  0.83586689  0.24744451
   0.63252874  0.58663480  0.24665241
   0.46698559  0.83666495  0.34487585
   0.96360673  0.58539524  0.34402066
Direct configuration=    26
   0.11335929  0.64926186  0.46438822
   0.29065981  0.65185055  0.46398536
   0.20063050  0.70757456  0.45660170
   0.21461365  0.46180469  0.05105452
   0.71461365  0.21180469  0.05105452
   0.04794698  0.21180469  0.14912624
   0.54794698  0.46180469  0.14912624
   0.38233584  0.21155599  0.24688031
   0.88192417  0.46119256  0.24637924
   0.21632541  0.45998908  0.34438088
   0.71630645  0.21086500  0.34499042
   0.21461365  0.21180469  0.05105452
   0.71461365  0.46180469  0.05105452
   0.04794698  0.46180469  0.14912624
   0.54794698  0.21180469  0.14912624
   0.38238529  0.46154584  0.24655704
   0.88229865  0.21157884  0.24673903
   0.21620333  0.21128684  0.34530816
   0.71608571  0.46056026  0.34546548
   0.46461365  0.08680469  0.05105452
   0.96461365  0.33680469  0.05105452
   0.29794698  0.33680469  0.14912624
   0.79794698  0.08680469  0.14912624
   0.13216807  0.08671724  0.24659157
   0.63206428  0.33667803  0.24682303
   0.46628866  0.08633381  0.34510752
   0.96628733  0.33628320  0.34498639
   0.46461365  0.33680469  0.05105452
   0.96461365  0.08680469  0.05105452
   0.29794698  0.08680469  0.14912624
   0.79794698  0.33680469  0.14912624
   0.13209171  0.33656368  0.24652371
   0.63223160  0.08645142  0.24675258
   0.46617947  0.33613693  0.34534713
   0.96601827  0.08631614  0.34491361
   0.21461365  0.96180469  0.05105452
   0.71461365  0.71180469  0.05105452
   0.04794698  0.71180469  0.14912624
   0.54794698  0.96180469  0.14912624
   0.38102856  0.71151649  0.24765234
   0.88194041  0.96181289  0.24653747
   0.21608995  0.96254219  0.34435003
   0.71558477  0.71072765  0.34557938
   0.21461365  0.71180469  0.05105452
   0.71461365  0.96180469  0.05105452
   0.04794698  0.96180469  0.14912624
   0.54794698  0.71180469  0.14912624
   0.38235284  0.96131952  0.24676405
   0.88205092  0.71160536  0.24665866
   0.21480999  0.71170457  0.34801474
   0.71589133  0.96124925  0.34528723
   0.46461365  0.58680469  0.05105452
   0.96461365  0.83680469  0.05105452
   0.29794698  0.83680469  0.14912624
   0.79794698  0.58680469  0.14912624
   0.13270775  0.58724200  0.24731525
   0.63230343  0.83638286  0.24672023
   0.46706306  0.58532039  0.34453824
   0.96374122  0.83666282  0.34437927
   0.46461365  0.83680469  0.05105452
   0.96461365  0.58680469  0.05105452
   0.29794698  0.58680469  0.14912624
   0.79794698  0.83680469  0.14912624
   0.13241089  0.83586326  0.24744133
   0.63252243  0.58663205  0.24664775
   0.46697781  0.83666826  0.34486973
   0.96362174  0.58541567  0.34403018
Direct configuration=    27
   0.11333121  0.64926866  0.46439568
   0.29066888  0.65187494  0.46396979
   0.20066723  0.70755793  0.45659266
   0.21461365  0.46180469  0.05105452
   0.71461365  0.21180469  0.05105452
   0.04794698  0.21180469  0.14912624
   0.54794698  0.46180469  0.14912624
   0.38233128  0.21155501  0.24688021
   0.88191780  0.46119277  0.24637915
   0.21632397  0.45999077  0.34437855
   0.71629685  0.21087089  0.34498536
   0.21461365  0.21180469  0.05105452
   0.71461365  0.46180469  0.05105452
   0.04794698  0.46180469  0.14912624
   0.54794698  0.21180469  0.14912624
   0.38239117  0.46154885  0.24655828
   0.88229561  0.21157526  0.24673768
   0.21620506  0.21128971  0.34530383
   0.71608575  0.46054795  0.34546197
   0.46461365  0.08680469  0.05105452
   0.96461365  0.33680469  0.05105452
   0.29794698  0.33680469  0.14912624
   0.79794698  0.08680469  0.14912624
   0.13216272  0.08671384  0.24658924
   0.63206593  0.33667552  0.24682347
   0.46628594  0.08632657  0.34510294
   0.96628028  0.33628888  0.34497959
   0.46461365  0.33680469  0.05105452
   0.96461365  0.08680469  0.05105452
   0.29794698  0.08680469  0.14912624
   0.79794698  0.33680469  0.14912624
   0.13209626  0.33656277  0.24652434
   0.63222943  0.08644645  0.24675205
   0.46618481  0.33613631  0.34534446
   0.96601274  0.08630675  0.34491090
   0.21461365  0.96180469  0.05105452
   0.71461365  0.71180469  0.05105452
   0.04794698  0.71180469  0.14912624
   0.54794698  0.96180469  0.14912624
   0.38103374  0.71151409  0.24765514
   0.88194576  0.96181340  0.24653636
   0.21609296  0.96253547  0.34434504
   0.71557956  0.71073435  0.34559309
   0.21461365  0.71180469  0.05105452
   0.71461365  0.96180469  0.05105452
   0.04794698  0.96180469  0.14912624
   0.54794698  0.71180469  0.14912624
   0.38235389  0.96131289  0.24676575
   0.88204622  0.71160668  0.24666010
   0.21480453  0.71169884  0.34800755
   0.71588821  0.96124216  0.34528561
   0.46461365  0.58680469  0.05105452
   0.96461365  0.83680469  0.05105452
   0.29794698  0.83680469  0.14912624
   0.79794698  0.58680469  0.14912624
   0.13270297  0.58723485  0.24731601
   0.63230245  0.83637883  0.24672254
   0.46706374  0.58531738  0.34454766
   0.96373114  0.83666142  0.34437639
   0.46461365  0.83680469  0.05105452
   0.96461365  0.58680469  0.05105452
   0.29794698  0.58680469  0.14912624
   0.79794698  0.83680469  0.14912624
   0.13240755  0.83586564  0.24744341
   0.63252656  0.58663385  0.24665081
   0.46698291  0.83666609  0.34487374
   0.96361190  0.58540228  0.34402394
Direct configuration=    28
   0.11330657  0.64924483  0.46438266
   0.29066247  0.65185964  0.46399811
   0.20065518  0.70752672  0.45660064
   0.21461365  0.46180469  0.05105452
   0.71461365  0.21180469  0.05105452
   0.04794698  0.21180469  0.14912624
   0.54794698  0.46180469  0.14912624
   0.38233606  0.21155830  0.24688026
   0.88193353  0.46119634  0.24638133
   0.21632648  0.45998905  0.34438117
   0.71631149  0.21087395  0.34499496
   0.21461365  0.21180469  0.05105452
   0.71461365  0.46180469  0.05105452
   0.04794698  0.46180469  0.14912624
   0.54794698  0.21180469  0.14912624
   0.38237867  0.46154158  0.24655688
   0.88229511  0.21158082  0.24674005
   0.21620626  0.21128738  0.34531219
   0.71608744  0.46056130  0.34546268
   0.46461365  0.08680469  0.05105452
   0.96461365  0.33680469  0.05105452
   0.29794698  0.33680469  0.14912624
   0.79794698  0.08680469  0.14912624
   0.13216705  0.08671775  0.24659288
   0.63206581  0.33667821  0.24682321
   0.46628799  0.08633934  0.34511146
   0.96628950  0.33628502  0.34499258
   0.46461365  0.33680469  0.05105452
   0.96461365  0.08680469  0.05105452
   0.29794698  0.08680469  0.14912624
   0.79794698  0.33680469  0.14912624
   0.13209313  0.33656656  0.24652275
   0.63222943  0.08645875  0.24675375
   0.46617853  0.33613984  0.34534724
   0.96602360  0.08632068  0.34491741
   0.21461365  0.96180469  0.05105452
   0.71461365  0.71180469  0.05105452
   0.04794698  0.71180469  0.14912624
   0.54794698  0.96180469  0.14912624
   0.38102202  0.71152368  0.24765443
   0.88194890  0.96181628  0.24653636
   0.21608945  0.96255182  0.34435283
   0.71558671  0.71073267  0.34557604
   0.21461365  0.71180469  0.05105452
   0.71461365  0.96180469  0.05105452
   0.04794698  0.96180469  0.14912624
   0.54794698  0.71180469  0.14912624
   0.38235112  0.96132784  0.24676198
   0.88205610  0.71160419  0.24665890
   0.21481881  0.71171288  0.34802167
   0.71589652  0.96124531  0.34528764
   0.46461365  0.58680469  0.05105452
   0.96461365  0.83680469  0.05105452
   0.29794698  0.83680469  0.14912624
   0.79794698  0.58680469  0.14912624
   0.13271083  0.58724611  0.24731622
   0.63230378  0.83638983  0.24672064
   0.46706806  0.58532137  0.34453795
   0.96374383  0.83667348  0.34437888
   0.46461365  0.83680469  0.05105452
   0.96461365  0.58680469  0.05105452
   0.29794698  0.58680469  0.14912624
   0.79794698  0.83680469  0.14912624
   0.13241897  0.83586978  0.24744167
   0.63251730  0.58663035  0.24664844
   0.46698041  0.83667128  0.34486267
   0.96363560  0.58541423  0.34403136
Direct configuration=    29
   0.11323762  0.64917817  0.46434623
   0.29064453  0.65181683  0.46407736
   0.20062148  0.70743939  0.45662297
   0.21461365  0.46180469  0.05105452
   0.71461365  0.21180469  0.05105452
   0.04794698  0.21180469  0.14912624
   0.54794698  0.46180469  0.14912624
   0.38234944  0.21156751  0.24688041
   0.88197755  0.46120632  0.24638743
   0.21633350  0.45998422  0.34438849
   0.71635246  0.21088251  0.34502181
   0.21461365  0.21180469  0.05105452
   0.71461365  0.46180469  0.05105452
   0.04794698  0.46180469  0.14912624
   0.54794698  0.21180469  0.14912624
   0.38234369  0.46152127  0.24655296
   0.88229370  0.21159640  0.24674669
   0.21620962  0.21128085  0.34533560
   0.71609214  0.46059865  0.34546468
   0.46461365  0.08680469  0.05105452
   0.96461365  0.33680469  0.05105452
   0.29794698  0.33680469  0.14912624
   0.79794698  0.08680469  0.14912624
   0.13217915  0.08672870  0.24660308
   0.63206550  0.33668573  0.24682247
   0.46629374  0.08637505  0.34513529
   0.96631528  0.33627422  0.34502891
   0.46461365  0.33680469  0.05105452
   0.96461365  0.08680469  0.05105452
   0.29794698  0.08680469  0.14912624
   0.79794698  0.33680469  0.14912624
   0.13208437  0.33657714  0.24651830
   0.63222942  0.08649316  0.24675851
   0.46616094  0.33614973  0.34535504
   0.96605398  0.08635967  0.34493561
   0.21461365  0.96180469  0.05105452
   0.71461365  0.71180469  0.05105452
   0.04794698  0.71180469  0.14912624
   0.54794698  0.96180469  0.14912624
   0.38098923  0.71155051  0.24765243
   0.88195767  0.96182436  0.24653637
   0.21607963  0.96259757  0.34437465
   0.71560673  0.71072799  0.34552832
   0.21461365  0.71180469  0.05105452
   0.71461365  0.96180469  0.05105452
   0.04794698  0.96180469  0.14912624
   0.54794698  0.71180469  0.14912624
   0.38234336  0.96136969  0.24675143
   0.88208376  0.71159721  0.24665555
   0.21485878  0.71175216  0.34806119
   0.71591979  0.96125411  0.34529332
   0.46461365  0.58680469  0.05105452
   0.96461365  0.83680469  0.05105452
   0.29794698  0.83680469  0.14912624
   0.79794698  0.58680469  0.14912624
   0.13273283  0.58727763  0.24731682
   0.63230748  0.83642061  0.24671531
   0.46708017  0.58533256  0.34451079
   0.96377934  0.83670722  0.34438582
   0.46461365  0.83680469  0.05105452
   0.96461365  0.58680469  0.05105452
   0.29794698  0.58680469  0.14912624
   0.79794698  0.83680469  0.14912624
   0.13245092  0.83588136  0.24743680
   0.63249139  0.58662055  0.24664182
   0.46697343  0.83668579  0.34483169
   0.96370189  0.58544766  0.34405213
Direct configuration=    30
   0.11309971  0.64904483  0.46427338
   0.29060866  0.65173121  0.46423587
   0.20055407  0.70726473  0.45666762
   0.21461365  0.46180469  0.05105452
   0.71461365  0.21180469  0.05105452
   0.04794698  0.21180469  0.14912624
   0.54794698  0.46180469  0.14912624
   0.38237619  0.21158594  0.24688071
   0.88206559  0.46122628  0.24639963
   0.21634755  0.45997458  0.34440315
   0.71643438  0.21089963  0.34507553
   0.21461365  0.21180469  0.05105452
   0.71461365  0.46180469  0.05105452
   0.04794698  0.46180469  0.14912624
   0.54794698  0.21180469  0.14912624
   0.38227374  0.46148064  0.24654512
   0.88229088  0.21162754  0.24675996
   0.21621634  0.21126779  0.34538240
   0.71610154  0.46067335  0.34546866
   0.46461365  0.08680469  0.05105452
   0.96461365  0.33680469  0.05105452
   0.29794698  0.33680469  0.14912624
   0.79794698  0.08680469  0.14912624
   0.13220337  0.08675061  0.24662348
   0.63206486  0.33670077  0.24682101
   0.46630523  0.08644648  0.34518296
   0.96636685  0.33625262  0.34510157
   0.46461365  0.33680469  0.05105452
   0.96461365  0.08680469  0.05105452
   0.29794698  0.08680469  0.14912624
   0.79794698  0.33680469  0.14912624
   0.13206686  0.33659832  0.24650940
   0.63222940  0.08656199  0.24676803
   0.46612576  0.33616952  0.34537064
   0.96611475  0.08643765  0.34497202
   0.21461365  0.96180469  0.05105452
   0.71461365  0.71180469  0.05105452
   0.04794698  0.71180469  0.14912624
   0.54794698  0.96180469  0.14912624
   0.38092364  0.71160417  0.24764843
   0.88197522  0.96184051  0.24653638
   0.21605999  0.96268907  0.34441828
   0.71564677  0.71071861  0.34543287
   0.21461365  0.71180469  0.05105452
   0.71461365  0.96180469  0.05105452
   0.04794698  0.96180469  0.14912624
   0.54794698  0.71180469  0.14912624
   0.38232785  0.96145337  0.24673034
   0.88213908  0.71158326  0.24664886
   0.21493873  0.71183073  0.34814024
   0.71596632  0.96127173  0.34530468
   0.46461365  0.58680469  0.05105452
   0.96461365  0.83680469  0.05105452
   0.29794698  0.83680469  0.14912624
   0.79794698  0.58680469  0.14912624
   0.13277682  0.58734066  0.24731802
   0.63231489  0.83648217  0.24670466
   0.46710437  0.58535492  0.34445647
   0.96385035  0.83677471  0.34439972
   0.46461365  0.83680469  0.05105452
   0.96461365  0.58680469  0.05105452
   0.29794698  0.58680469  0.14912624
   0.79794698  0.83680469  0.14912624
   0.13251482  0.83590452  0.24742707
   0.63243958  0.58660095  0.24662859
   0.46695945  0.83671481  0.34476973
   0.96383447  0.58551453  0.34409366
Direct configuration=    31
   0.11282391  0.64877817  0.46412767
   0.29053691  0.65155998  0.46455288
   0.20041925  0.70691541  0.45675693
   0.21461365  0.46180469  0.05105452
   0.71461365  0.21180469  0.05105452
   0.04794698  0.21180469  0.14912624
   0.54794698  0.46180469  0.14912624
   0.38242969  0.21162278  0.24688130
   0.88224167  0.46126619  0.24642404
   0.21637565  0.45995529  0.34443245
   0.71659824  0.21093386  0.34518295
   0.21461365  0.21180469  0.05105452
   0.71461365  0.46180469  0.05105452
   0.04794698  0.46180469  0.14912624
   0.54794698  0.21180469  0.14912624
   0.38213384  0.46139938  0.24652945
   0.88228525  0.21168982  0.24678649
   0.21622977  0.21124169  0.34547602
   0.71612035  0.46082275  0.34547664
   0.46461365  0.08680469  0.05105452
   0.96461365  0.33680469  0.05105452
   0.29794698  0.33680469  0.14912624
   0.79794698  0.08680469  0.14912624
   0.13225180  0.08679442  0.24666427
   0.63206359  0.33673085  0.24681808
   0.46632822  0.08658935  0.34527829
   0.96646999  0.33620943  0.34524690
   0.46461365  0.33680469  0.05105452
   0.96461365  0.08680469  0.05105452
   0.29794698  0.08680469  0.14912624
   0.79794698  0.33680469  0.14912624
   0.13203182  0.33664067  0.24649159
   0.63222935  0.08669966  0.24678708
   0.46605540  0.33620910  0.34540183
   0.96623629  0.08659360  0.34504483
   0.21461365  0.96180469  0.05105452
   0.71461365  0.71180469  0.05105452
   0.04794698  0.71180469  0.14912624
   0.54794698  0.96180469  0.14912624
   0.38079247  0.71171150  0.24764043
   0.88201031  0.96187281  0.24653641
   0.21602070  0.96287206  0.34450555
   0.71572685  0.71069986  0.34524198
   0.21461365  0.71180469  0.05105452
   0.71461365  0.96180469  0.05105452
   0.04794698  0.96180469  0.14912624
   0.54794698  0.71180469  0.14912624
   0.38229682  0.96162074  0.24668816
   0.88224973  0.71155535  0.24663547
   0.21509861  0.71198786  0.34829832
   0.71605938  0.96130695  0.34532740
   0.46461365  0.58680469  0.05105452
   0.96461365  0.83680469  0.05105452
   0.29794698  0.83680469  0.14912624
   0.79794698  0.58680469  0.14912624
   0.13286480  0.58746673  0.24732041
   0.63232971  0.83660530  0.24668337
   0.46715278  0.58539965  0.34434782
   0.96399237  0.83690969  0.34442750
   0.46461365  0.83680469  0.05105452
   0.96461365  0.58680469  0.05105452
   0.29794698  0.58680469  0.14912624
   0.79794698  0.83680469  0.14912624
   0.13264261  0.83595085  0.24740759
   0.63233595  0.58656174  0.24660211
   0.46693150  0.83677286  0.34464581
   0.96409964  0.58564826  0.34417672
Direct configuration=    32
   0.11297763  0.64892680  0.46420888
   0.29057690  0.65165541  0.46437619
   0.20049439  0.70711010  0.45670715
   0.21461365  0.46180469  0.05105452
   0.71461365  0.21180469  0.05105452
   0.04794698  0.21180469  0.14912624
   0.54794698  0.46180469  0.14912624
   0.38239987  0.21160225  0.24688097
   0.88214353  0.46124395  0.24641044
   0.21635999  0.45996604  0.34441612
   0.71650691  0.21091478  0.34512308
   0.21461365  0.21180469  0.05105452
   0.71461365  0.46180469  0.05105452
   0.04794698  0.46180469  0.14912624
   0.54794698  0.21180469  0.14912624
   0.38221181  0.46144467  0.24653818
   0.88228839  0.21165511  0.24677170
   0.21622228  0.21125624  0.34542384
   0.71610987  0.46073948  0.34547219
   0.46461365  0.08680469  0.05105452
   0.96461365  0.33680469  0.05105452
   0.29794698  0.33680469  0.14912624
   0.79794698  0.08680469  0.14912624
   0.13222481  0.08677000  0.24664154
   0.63206430  0.33671408  0.24681971
   0.46631541  0.08650972  0.34522516
   0.96641250  0.33623350  0.34516590
   0.46461365  0.33680469  0.05105452
   0.96461365  0.08680469  0.05105452
   0.29794698  0.08680469  0.14912624
   0.79794698  0.33680469  0.14912624
   0.13205135  0.33661706  0.24650151
   0.63222938  0.08662293  0.24677647
   0.46609461  0.33618704  0.34538444
   0.96616855  0.08650668  0.34500425
   0.21461365  0.96180469  0.05105452
   0.71461365  0.71180469  0.05105452
   0.04794698  0.71180469  0.14912624
   0.54794698  0.96180469  0.14912624
   0.38086557  0.71165168  0.24764489
   0.88199075  0.96185481  0.24653640
   0.21604259  0.96277007  0.34445691
   0.71568222  0.71071031  0.34534837
   0.21461365  0.71180469  0.05105452
   0.71461365  0.96180469  0.05105452
   0.04794698  0.96180469  0.14912624
   0.54794698  0.71180469  0.14912624
   0.38231411  0.96152746  0.24671167
   0.88218806  0.71157091  0.24664293
   0.21500950  0.71190028  0.34821021
   0.71600751  0.96128732  0.34531473
   0.46461365  0.58680469  0.05105452
   0.96461365  0.83680469  0.05105452
   0.29794698  0.83680469  0.14912624
   0.79794698  0.58680469  0.14912624
   0.13281576  0.58739647  0.24731907
   0.63232145  0.83653668  0.24669524
   0.46712580  0.58537472  0.34440837
   0.96391321  0.83683446  0.34441201
   0.46461365  0.83680469  0.05105452
   0.96461365  0.58680469  0.05105452
   0.29794698  0.58680469  0.14912624
   0.79794698  0.83680469  0.14912624
   0.13257139  0.83592503  0.24741845
   0.63239370  0.58658359  0.24661687
   0.46694708  0.83674051  0.34471487
   0.96395185  0.58557373  0.34413043
Direct configuration=    33
   0.11288808  0.64884021  0.46416157
   0.29055360  0.65159981  0.46447912
   0.20045062  0.70699668  0.45673615
   0.21461365  0.46180469  0.05105452
   0.71461365  0.21180469  0.05105452
   0.04794698  0.21180469  0.14912624
   0.54794698  0.46180469  0.14912624
   0.38241724  0.21161421  0.24688116
   0.88220070  0.46125691  0.24641836
   0.21636912  0.45995978  0.34442563
   0.71656012  0.21092590  0.34515796
   0.21461365  0.21180469  0.05105452
   0.71461365  0.46180469  0.05105452
   0.04794698  0.46180469  0.14912624
   0.54794698  0.21180469  0.14912624
   0.38216639  0.46141829  0.24653309
   0.88228656  0.21167533  0.24678032
   0.21622665  0.21124776  0.34545424
   0.71611598  0.46078799  0.34547478
   0.46461365  0.08680469  0.05105452
   0.96461365  0.33680469  0.05105452
   0.29794698  0.33680469  0.14912624
   0.79794698  0.08680469  0.14912624
   0.13224053  0.08678422  0.24665478
   0.63206388  0.33672385  0.24681876
   0.46632287  0.08655611  0.34525611
   0.96644599  0.33621947  0.34521309
   0.46461365  0.33680469  0.05105452
   0.96461365  0.08680469  0.05105452
   0.29794698  0.08680469  0.14912624
   0.79794698  0.33680469  0.14912624
   0.13203997  0.33663081  0.24649573
   0.63222936  0.08666763  0.24678265
   0.46607177  0.33619989  0.34539457
   0.96620802  0.08655731  0.34502789
   0.21461365  0.96180469  0.05105452
   0.71461365  0.71180469  0.05105452
   0.04794698  0.71180469  0.14912624
   0.54794698  0.96180469  0.14912624
   0.38082298  0.71168653  0.24764229
   0.88200215  0.96186530  0.24653641
   0.21602984  0.96282949  0.34448525
   0.71570822  0.71070422  0.34528639
   0.21461365  0.71180469  0.05105452
   0.71461365  0.96180469  0.05105452
   0.04794698  0.96180469  0.14912624
   0.54794698  0.71180469  0.14912624
   0.38230404  0.96158180  0.24669797
   0.88222399  0.71156185  0.24663858
   0.21506142  0.71195130  0.34826154
   0.71603773  0.96129875  0.34532211
   0.46461365  0.58680469  0.05105452
   0.96461365  0.83680469  0.05105452
   0.29794698  0.83680469  0.14912624
   0.79794698  0.58680469  0.14912624
   0.13284433  0.58743740  0.24731985
   0.63232626  0.83657665  0.24668832
   0.46714152  0.58538925  0.34437310
   0.96395932  0.83687828  0.34442104
   0.46461365  0.83680469  0.05105452
   0.96461365  0.58680469  0.05105452
   0.29794698  0.58680469  0.14912624
   0.79794698  0.83680469  0.14912624
   0.13261288  0.83594007  0.24741212
   0.63236006  0.58657086  0.24660827
   0.46693800  0.83675935  0.34467464
   0.96403795  0.58561715  0.34415740
Direct configuration=    34
   0.11262642  0.64863844  0.46411809
   0.29044363  0.65158213  0.46460302
   0.20054060  0.70692088  0.45677428
   0.21461365  0.46180469  0.05105452
   0.71461365  0.21180469  0.05105452
   0.04794698  0.21180469  0.14912624
   0.54794698  0.46180469  0.14912624
   0.38240332  0.21163017  0.24689149
   0.88222305  0.46127153  0.24644221
   0.21637509  0.45997905  0.34442430
   0.71656736  0.21098535  0.34517991
   0.21461365  0.21180469  0.05105452
   0.71461365  0.46180469  0.05105452
   0.04794698  0.46180469  0.14912624
   0.54794698  0.21180469  0.14912624
   0.38215498  0.46142953  0.24653110
   0.88228424  0.21168760  0.24679422
   0.21625640  0.21128034  0.34547164
   0.71615418  0.46077735  0.34546178
   0.46461365  0.08680469  0.05105452
   0.96461365  0.33680469  0.05105452
   0.29794698  0.33680469  0.14912624
   0.79794698  0.08680469  0.14912624
   0.13222739  0.08679576  0.24666064
   0.63209114  0.33674002  0.24683503
   0.46634128  0.08657575  0.34527194
   0.96646191  0.33627215  0.34523850
   0.46461365  0.33680469  0.05105452
   0.96461365  0.08680469  0.05105452
   0.29794698  0.08680469  0.14912624
   0.79794698  0.33680469  0.14912624
   0.13203740  0.33663513  0.24651107
   0.63223074  0.08668954  0.24679694
   0.46610230  0.33622987  0.34539557
   0.96621682  0.08657288  0.34504133
   0.21461365  0.96180469  0.05105452
   0.71461365  0.71180469  0.05105452
   0.04794698  0.71180469  0.14912624
   0.54794698  0.96180469  0.14912624
   0.38082369  0.71170590  0.24764633
   0.88204671  0.96188680  0.24654065
   0.21606903  0.96285383  0.34449685
   0.71574863  0.71074713  0.34526334
   0.21461365  0.71180469  0.05105452
   0.71461365  0.96180469  0.05105452
   0.04794698  0.96180469  0.14912624
   0.54794698  0.71180469  0.14912624
   0.38230598  0.96162914  0.24670059
   0.88225260  0.71156518  0.24663817
   0.21510709  0.71199252  0.34828693
   0.71606394  0.96129595  0.34531893
   0.46461365  0.58680469  0.05105452
   0.96461365  0.83680469  0.05105452
   0.29794698  0.83680469  0.14912624
   0.79794698  0.58680469  0.14912624
   0.13285998  0.58744683  0.24733586
   0.63233511  0.83659628  0.24668355
   0.46714870  0.58540411  0.34437119
   0.96398916  0.83693267  0.34441421
   0.46461365  0.83680469  0.05105452
   0.96461365  0.58680469  0.05105452
   0.29794698  0.58680469  0.14912624
   0.79794698  0.83680469  0.14912624
   0.13262508  0.83598700  0.24743343
   0.63235879  0.58657825  0.24659752
   0.46697268  0.83680348  0.34464841
   0.96411483  0.58561410  0.34416194
Direct configuration=    35
   0.11264341  0.64865154  0.46412091
   0.29045078  0.65158328  0.46459497
   0.20053476  0.70692580  0.45677181
   0.21461365  0.46180469  0.05105452
   0.71461365  0.21180469  0.05105452
   0.04794698  0.21180469  0.14912624
   0.54794698  0.46180469  0.14912624
   0.38240423  0.21162913  0.24689082
   0.88222160  0.46127058  0.24644066
   0.21637470  0.45997780  0.34442438
   0.71656689  0.21098148  0.34517848
   0.21461365  0.21180469  0.05105452
   0.71461365  0.46180469  0.05105452
   0.04794698  0.46180469  0.14912624
   0.54794698  0.21180469  0.14912624
   0.38215572  0.46142880  0.24653123
   0.88228439  0.21168680  0.24679331
   0.21625447  0.21127822  0.34547051
   0.71615170  0.46077804  0.34546263
   0.46461365  0.08680469  0.05105452
   0.96461365  0.33680469  0.05105452
   0.29794698  0.33680469  0.14912624
   0.79794698  0.08680469  0.14912624
   0.13222824  0.08679501  0.24666026
   0.63208937  0.33673897  0.24683398
   0.46634009  0.08657448  0.34527091
   0.96646088  0.33626873  0.34523685
   0.46461365  0.33680469  0.05105452
   0.96461365  0.08680469  0.05105452
   0.29794698  0.08680469  0.14912624
   0.79794698  0.33680469  0.14912624
   0.13203757  0.33663485  0.24651007
   0.63223065  0.08668812  0.24679601
   0.46610032  0.33622792  0.34539551
   0.96621625  0.08657187  0.34504046
   0.21461365  0.96180469  0.05105452
   0.71461365  0.71180469  0.05105452
   0.04794698  0.71180469  0.14912624
   0.54794698  0.96180469  0.14912624
   0.38082365  0.71170464  0.24764607
   0.88204381  0.96188541  0.24654038
   0.21606648  0.96285225  0.34449610
   0.71574601  0.71074435  0.34526484
   0.21461365  0.71180469  0.05105452
   0.71461365  0.96180469  0.05105452
   0.04794698  0.96180469  0.14912624
   0.54794698  0.71180469  0.14912624
   0.38230585  0.96162606  0.24670042
   0.88225075  0.71156497  0.24663820
   0.21510412  0.71198984  0.34828528
   0.71606223  0.96129613  0.34531914
   0.46461365  0.58680469  0.05105452
   0.96461365  0.83680469  0.05105452
   0.29794698  0.83680469  0.14912624
   0.79794698  0.58680469  0.14912624
   0.13285897  0.58744622  0.24733482
   0.63233453  0.83659501  0.24668386
   0.46714823  0.58540314  0.34437131
   0.96398722  0.83692914  0.34441465
   0.46461365  0.83680469  0.05105452
   0.96461365  0.58680469  0.05105452
   0.29794698  0.58680469  0.14912624
   0.79794698  0.83680469  0.14912624
   0.13262429  0.83598395  0.24743205
   0.63235887  0.58657777  0.24659822
   0.46697043  0.83680061  0.34465011
   0.96410983  0.58561430  0.34416164
Direct configuration=    36
   0.11255836  0.64857591  0.46409099
   0.29041650  0.65155184  0.46466925
   0.20046565  0.70685995  0.45679641
   0.21461365  0.46180469  0.05105452
   0.71461365  0.21180469  0.05105452
   0.04794698  0.21180469  0.14912624
   0.54794698  0.46180469  0.14912624
   0.38239123  0.21163877  0.24689817
   0.88222770  0.46127866  0.24645573
   0.21637883  0.45999314  0.34442201
   0.71656226  0.21102129  0.34518947
   0.21461365  0.21180469  0.05105452
   0.71461365  0.46180469  0.05105452
   0.04794698  0.46180469  0.14912624
   0.54794698  0.21180469  0.14912624
   0.38215603  0.46144148  0.24653059
   0.88228298  0.21169214  0.24680200
   0.21627514  0.21130581  0.34547818
   0.71618013  0.46076354  0.34545269
   0.46461365  0.08680469  0.05105452
   0.96461365  0.33680469  0.05105452
   0.29794698  0.33680469  0.14912624
   0.79794698  0.08680469  0.14912624
   0.13221618  0.08680149  0.24666229
   0.63210990  0.33674905  0.24684513
   0.46635298  0.08658025  0.34527753
   0.96646690  0.33630926  0.34524740
   0.46461365  0.33680469  0.05105452
   0.96461365  0.08680469  0.05105452
   0.29794698  0.08680469  0.14912624
   0.79794698  0.33680469  0.14912624
   0.13203622  0.33663543  0.24652251
   0.63223274  0.08669678  0.24680567
   0.46612651  0.33624865  0.34539489
   0.96621594  0.08657548  0.34504628
   0.21461365  0.96180469  0.05105452
   0.71461365  0.71180469  0.05105452
   0.04794698  0.71180469  0.14912624
   0.54794698  0.96180469  0.14912624
   0.38083172  0.71171377  0.24764954
   0.88207358  0.96189897  0.24654354
   0.21609688  0.96286071  0.34450023
   0.71577132  0.71077518  0.34525821
   0.21461365  0.71180469  0.05105452
   0.71461365  0.96180469  0.05105452
   0.04794698  0.96180469  0.14912624
   0.54794698  0.71180469  0.14912624
   0.38230900  0.96165023  0.24670442
   0.88226535  0.71156895  0.24663849
   0.21512930  0.71201103  0.34829554
   0.71607639  0.96129353  0.34531529
   0.46461365  0.58680469  0.05105452
   0.96461365  0.83680469  0.05105452
   0.29794698  0.83680469  0.14912624
   0.79794698  0.58680469  0.14912624
   0.13286579  0.58744654  0.24734577
   0.63234023  0.83660315  0.24668084
   0.46715215  0.58541182  0.34437591
   0.96400182  0.83695955  0.34440831
   0.46461365  0.83680469  0.05105452
   0.96461365  0.58680469  0.05105452
   0.29794698  0.58680469  0.14912624
   0.79794698  0.83680469  0.14912624
   0.13263006  0.83601734  0.24744879
   0.63236349  0.58658583  0.24659149
   0.46699779  0.83682890  0.34463819
   0.96415152  0.58560740  0.34416032
Direct configuration=    37
   0.11230319  0.64834900  0.46400124
   0.29031368  0.65145752  0.46489208
   0.20025831  0.70666238  0.45687023
   0.21461365  0.46180469  0.05105452
   0.71461365  0.21180469  0.05105452
   0.04794698  0.21180469  0.14912624
   0.54794698  0.46180469  0.14912624
   0.38235222  0.21166770  0.24692020
   0.88224599  0.46130287  0.24650095
   0.21639124  0.46003918  0.34441488
   0.71654837  0.21114071  0.34522243
   0.21461365  0.21180469  0.05105452
   0.71461365  0.46180469  0.05105452
   0.04794698  0.46180469  0.14912624
   0.54794698  0.21180469  0.14912624
   0.38215695  0.46147952  0.24652868
   0.88227874  0.21170815  0.24682804
   0.21633717  0.21138859  0.34550120
   0.71626544  0.46072004  0.34542289
   0.46461365  0.08680469  0.05105452
   0.96461365  0.33680469  0.05105452
   0.29794698  0.33680469  0.14912624
   0.79794698  0.08680469  0.14912624
   0.13217999  0.08682095  0.24666839
   0.63217149  0.33677930  0.24687858
   0.46639168  0.08659757  0.34529737
   0.96648496  0.33643083  0.34527907
   0.46461365  0.33680469  0.05105452
   0.96461365  0.08680469  0.05105452
   0.29794698  0.08680469  0.14912624
   0.79794698  0.33680469  0.14912624
   0.13203219  0.33663717  0.24655984
   0.63223903  0.08672279  0.24683462
   0.46620508  0.33631083  0.34539304
   0.96621499  0.08658634  0.34506377
   0.21461365  0.96180469  0.05105452
   0.71461365  0.71180469  0.05105452
   0.04794698  0.71180469  0.14912624
   0.54794698  0.96180469  0.14912624
   0.38085592  0.71174114  0.24765996
   0.88216287  0.96193965  0.24655305
   0.21618806  0.96288610  0.34451264
   0.71584726  0.71086769  0.34523833
   0.21461365  0.71180469  0.05105452
   0.71461365  0.96180469  0.05105452
   0.04794698  0.96180469  0.14912624
   0.54794698  0.71180469  0.14912624
   0.38231847  0.96172275  0.24671643
   0.88230917  0.71158090  0.24663937
   0.21520485  0.71207460  0.34832630
   0.71611884  0.96128572  0.34530375
   0.46461365  0.58680469  0.05105452
   0.96461365  0.83680469  0.05105452
   0.29794698  0.83680469  0.14912624
   0.79794698  0.58680469  0.14912624
   0.13288626  0.58744752  0.24737863
   0.63235731  0.83662757  0.24667177
   0.46716392  0.58543786  0.34438971
   0.96404563  0.83705080  0.34438928
   0.46461365  0.83680469  0.05105452
   0.96461365  0.58680469  0.05105452
   0.29794698  0.58680469  0.14912624
   0.79794698  0.83680469  0.14912624
   0.13264738  0.83611748  0.24749901
   0.63237735  0.58661001  0.24657132
   0.46707988  0.83691375  0.34460245
   0.96427657  0.58558670  0.34415633
Direct configuration=    38
   0.11179287  0.64789518  0.46382173
   0.29010804  0.65126889  0.46533774
   0.19984364  0.70626724  0.45701786
   0.21461365  0.46180469  0.05105452
   0.71461365  0.21180469  0.05105452
   0.04794698  0.21180469  0.14912624
   0.54794698  0.46180469  0.14912624
   0.38227420  0.21172555  0.24696427
   0.88228257  0.46135131  0.24659138
   0.21641604  0.46013125  0.34440064
   0.71652058  0.21137955  0.34528836
   0.21461365  0.21180469  0.05105452
   0.71461365  0.46180469  0.05105452
   0.04794698  0.46180469  0.14912624
   0.54794698  0.21180469  0.14912624
   0.38215879  0.46155560  0.24652486
   0.88227025  0.21174018  0.24688013
   0.21646122  0.21155413  0.34554723
   0.71643604  0.46063304  0.34536329
   0.46461365  0.08680469  0.05105452
   0.96461365  0.33680469  0.05105452
   0.29794698  0.33680469  0.14912624
   0.79794698  0.08680469  0.14912624
   0.13210760  0.08685986  0.24668059
   0.63229466  0.33683979  0.24694549
   0.46646908  0.08663220  0.34533704
   0.96652109  0.33667397  0.34534240
   0.46461365  0.33680469  0.05105452
   0.96461365  0.08680469  0.05105452
   0.29794698  0.08680469  0.14912624
   0.79794698  0.33680469  0.14912624
   0.13202412  0.33664065  0.24663449
   0.63225160  0.08677480  0.24689254
   0.46636222  0.33643521  0.34538934
   0.96621309  0.08660804  0.34509874
   0.21461365  0.96180469  0.05105452
   0.71461365  0.71180469  0.05105452
   0.04794698  0.71180469  0.14912624
   0.54794698  0.96180469  0.14912624
   0.38090432  0.71179589  0.24768079
   0.88234145  0.96202101  0.24657206
   0.21637042  0.96293687  0.34453746
   0.71599914  0.71105271  0.34519858
   0.21461365  0.71180469  0.05105452
   0.71461365  0.96180469  0.05105452
   0.04794698  0.96180469  0.14912624
   0.54794698  0.71180469  0.14912624
   0.38233739  0.96186777  0.24674044
   0.88239680  0.71160480  0.24664113
   0.21535593  0.71220173  0.34838784
   0.71620375  0.96127011  0.34528066
   0.46461365  0.58680469  0.05105452
   0.96461365  0.83680469  0.05105452
   0.29794698  0.83680469  0.14912624
   0.79794698  0.58680469  0.14912624
   0.13292719  0.58744947  0.24744434
   0.63239146  0.83667640  0.24665363
   0.46718746  0.58548993  0.34441729
   0.96413323  0.83723329  0.34435122
   0.46461365  0.83680469  0.05105452
   0.96461365  0.58680469  0.05105452
   0.29794698  0.58680469  0.14912624
   0.79794698  0.83680469  0.14912624
   0.13268202  0.83631778  0.24759946
   0.63240506  0.58665837  0.24653097
   0.46724405  0.83708347  0.34453096
   0.96452668  0.58554531  0.34414836
Direct configuration=    39
   0.11195025  0.64803514  0.46387709
   0.29017146  0.65132706  0.46520030
   0.19997153  0.70638910  0.45697233
   0.21461365  0.46180469  0.05105452
   0.71461365  0.21180469  0.05105452
   0.04794698  0.21180469  0.14912624
   0.54794698  0.46180469  0.14912624
   0.38229826  0.21170771  0.24695068
   0.88227129  0.46133637  0.24656349
   0.21640839  0.46010286  0.34440503
   0.71652915  0.21130589  0.34526803
   0.21461365  0.21180469  0.05105452
   0.71461365  0.46180469  0.05105452
   0.04794698  0.46180469  0.14912624
   0.54794698  0.21180469  0.14912624
   0.38215822  0.46153214  0.24652604
   0.88227287  0.21173030  0.24686406
   0.21642296  0.21150308  0.34553304
   0.71638343  0.46065987  0.34538167
   0.46461365  0.08680469  0.05105452
   0.96461365  0.33680469  0.05105452
   0.29794698  0.33680469  0.14912624
   0.79794698  0.08680469  0.14912624
   0.13212993  0.08684786  0.24667683
   0.63225667  0.33682113  0.24692485
   0.46644521  0.08662152  0.34532481
   0.96650994  0.33659899  0.34532287
   0.46461365  0.33680469  0.05105452
   0.96461365  0.08680469  0.05105452
   0.29794698  0.08680469  0.14912624
   0.79794698  0.33680469  0.14912624
   0.13202661  0.33663957  0.24661146
   0.63224772  0.08675876  0.24687468
   0.46631376  0.33639685  0.34539048
   0.96621367  0.08660135  0.34508795
   0.21461365  0.96180469  0.05105452
   0.71461365  0.71180469  0.05105452
   0.04794698  0.71180469  0.14912624
   0.54794698  0.96180469  0.14912624
   0.38088939  0.71177901  0.24767436
   0.88228638  0.96199591  0.24656620
   0.21631418  0.96292121  0.34452981
   0.71595230  0.71099565  0.34521084
   0.21461365  0.71180469  0.05105452
   0.71461365  0.96180469  0.05105452
   0.04794698  0.96180469  0.14912624
   0.54794698  0.71180469  0.14912624
   0.38233156  0.96182305  0.24673303
   0.88236978  0.71159743  0.24664058
   0.21530933  0.71216252  0.34836886
   0.71617757  0.96127493  0.34528778
   0.46461365  0.58680469  0.05105452
   0.96461365  0.83680469  0.05105452
   0.29794698  0.83680469  0.14912624
   0.79794698  0.58680469  0.14912624
   0.13291457  0.58744887  0.24742407
   0.63238093  0.83666134  0.24665923
   0.46718020  0.58547387  0.34440879
   0.96410621  0.83717701  0.34436296
   0.46461365  0.83680469  0.05105452
   0.96461365  0.58680469  0.05105452
   0.29794698  0.58680469  0.14912624
   0.79794698  0.83680469  0.14912624
   0.13267134  0.83625601  0.24756848
   0.63239651  0.58664346  0.24654341
   0.46719342  0.83703113  0.34455300
   0.96444955  0.58555807  0.34415082
Direct configuration=    40
   0.11184878  0.64794491  0.46384140
   0.29013057  0.65128955  0.46528891
   0.19988908  0.70631054  0.45700168
   0.21461365  0.46180469  0.05105452
   0.71461365  0.21180469  0.05105452
   0.04794698  0.21180469  0.14912624
   0.54794698  0.46180469  0.14912624
   0.38228275  0.21171921  0.24695944
   0.88227856  0.46134600  0.24658147
   0.21641332  0.46012116  0.34440220
   0.71652363  0.21135338  0.34528113
   0.21461365  0.21180469  0.05105452
   0.71461365  0.46180469  0.05105452
   0.04794698  0.46180469  0.14912624
   0.54794698  0.21180469  0.14912624
   0.38215859  0.46154727  0.24652528
   0.88227118  0.21173667  0.24687442
   0.21644763  0.21153600  0.34554219
   0.71641735  0.46064257  0.34536982
   0.46461365  0.08680469  0.05105452
   0.96461365  0.33680469  0.05105452
   0.29794698  0.33680469  0.14912624
   0.79794698  0.08680469  0.14912624
   0.13211553  0.08685560  0.24667925
   0.63228116  0.33683316  0.24693816
   0.46646060  0.08662840  0.34533270
   0.96651713  0.33664733  0.34533546
   0.46461365  0.33680469  0.05105452
   0.96461365  0.08680469  0.05105452
   0.29794698  0.08680469  0.14912624
   0.79794698  0.33680469  0.14912624
   0.13202501  0.33664027  0.24662631
   0.63225022  0.08676910  0.24688620
   0.46634500  0.33642158  0.34538974
   0.96621329  0.08660567  0.34509491
   0.21461365  0.96180469  0.05105452
   0.71461365  0.71180469  0.05105452
   0.04794698  0.71180469  0.14912624
   0.54794698  0.96180469  0.14912624
   0.38089902  0.71178989  0.24767851
   0.88232189  0.96201209  0.24656998
   0.21635044  0.96293131  0.34453474
   0.71598250  0.71103244  0.34520293
   0.21461365  0.71180469  0.05105452
   0.71461365  0.96180469  0.05105452
   0.04794698  0.96180469  0.14912624
   0.54794698  0.71180469  0.14912624
   0.38233532  0.96185188  0.24673781
   0.88238720  0.71160218  0.24664093
   0.21533937  0.71218780  0.34838109
   0.71619445  0.96127182  0.34528319
   0.46461365  0.58680469  0.05105452
   0.96461365  0.83680469  0.05105452
   0.29794698  0.83680469  0.14912624
   0.79794698  0.58680469  0.14912624
   0.13292271  0.58744926  0.24743714
   0.63238772  0.83667105  0.24665562
   0.46718488  0.58548423  0.34441427
   0.96412363  0.83721330  0.34435539
   0.46461365  0.83680469  0.05105452
   0.96461365  0.58680469  0.05105452
   0.29794698  0.58680469  0.14912624
   0.79794698  0.83680469  0.14912624
   0.13267822  0.83629584  0.24758845
   0.63240202  0.58665307  0.24653539
   0.46722607  0.83706487  0.34453879
   0.96449928  0.58554984  0.34414924
Direct configuration=    41
   0.11177089  0.64779126  0.46376279
   0.28988705  0.65124911  0.46547053
   0.19980348  0.70604286  0.45708377
   0.21461365  0.46180469  0.05105452
   0.71461365  0.21180469  0.05105452
   0.04794698  0.21180469  0.14912624
   0.54794698  0.46180469  0.14912624
   0.38226284  0.21175266  0.24697278
   0.88228591  0.46136764  0.24659651
   0.21644896  0.46016240  0.34440270
   0.71651764  0.21141349  0.34530508
   0.21461365  0.21180469  0.05105452
   0.71461365  0.46180469  0.05105452
   0.04794698  0.46180469  0.14912624
   0.54794698  0.21180469  0.14912624
   0.38217564  0.46157844  0.24652414
   0.88226870  0.21176162  0.24689336
   0.21648402  0.21160081  0.34555529
   0.71647500  0.46065613  0.34535577
   0.46461365  0.08680469  0.05105452
   0.96461365  0.33680469  0.05105452
   0.29794698  0.33680469  0.14912624
   0.79794698  0.08680469  0.14912624
   0.13210121  0.08688445  0.24668358
   0.63230538  0.33685010  0.24694880
   0.46650446  0.08665468  0.34534480
   0.96653508  0.33671036  0.34535316
   0.46461365  0.33680469  0.05105452
   0.96461365  0.08680469  0.05105452
   0.29794698  0.08680469  0.14912624
   0.79794698  0.33680469  0.14912624
   0.13202379  0.33664470  0.24664780
   0.63226500  0.08678682  0.24690477
   0.46640235  0.33647201  0.34538858
   0.96621672  0.08663475  0.34510581
   0.21461365  0.96180469  0.05105452
   0.71461365  0.71180469  0.05105452
   0.04794698  0.71180469  0.14912624
   0.54794698  0.96180469  0.14912624
   0.38092143  0.71181268  0.24768351
   0.88235007  0.96203420  0.24657075
   0.21641981  0.96296384  0.34454209
   0.71604361  0.71107810  0.34520052
   0.21461365  0.71180469  0.05105452
   0.71461365  0.96180469  0.05105452
   0.04794698  0.96180469  0.14912624
   0.54794698  0.71180469  0.14912624
   0.38234459  0.96189985  0.24674224
   0.88241867  0.71162352  0.24664103
   0.21539433  0.71222570  0.34839897
   0.71622241  0.96129730  0.34527485
   0.46461365  0.58680469  0.05105452
   0.96461365  0.83680469  0.05105452
   0.29794698  0.83680469  0.14912624
   0.79794698  0.58680469  0.14912624
   0.13293831  0.58746631  0.24744996
   0.63241513  0.83668726  0.24664432
   0.46721843  0.58551651  0.34443090
   0.96416103  0.83725226  0.34434883
   0.46461365  0.83680469  0.05105452
   0.96461365  0.58680469  0.05105452
   0.29794698  0.58680469  0.14912624
   0.79794698  0.83680469  0.14912624
   0.13271053  0.83634776  0.24762065
   0.63241422  0.58668151  0.24652864
   0.46728391  0.83711199  0.34452724
   0.96455734  0.58556988  0.34414505
Direct configuration=    42
   0.11175155  0.64775312  0.46374328
   0.28982660  0.65123907  0.46551562
   0.19978223  0.70597641  0.45710415
   0.21461365  0.46180469  0.05105452
   0.71461365  0.21180469  0.05105452
   0.04794698  0.21180469  0.14912624
   0.54794698  0.46180469  0.14912624
   0.38225790  0.21176096  0.24697609
   0.88228773  0.46137301  0.24660025
   0.21645780  0.46017264  0.34440282
   0.71651616  0.21142842  0.34531103
   0.21461365  0.21180469  0.05105452
   0.71461365  0.46180469  0.05105452
   0.04794698  0.46180469  0.14912624
   0.54794698  0.21180469  0.14912624
   0.38217987  0.46158618  0.24652386
   0.88226809  0.21176781  0.24689806
   0.21649305  0.21161690  0.34555855
   0.71648930  0.46065950  0.34535229
   0.46461365  0.08680469  0.05105452
   0.96461365  0.33680469  0.05105452
   0.29794698  0.33680469  0.14912624
   0.79794698  0.08680469  0.14912624
   0.13209765  0.08689162  0.24668466
   0.63231139  0.33685430  0.24695144
   0.46651535  0.08666120  0.34534781
   0.96653954  0.33672601  0.34535755
   0.46461365  0.33680469  0.05105452
   0.96461365  0.08680469  0.05105452
   0.29794698  0.08680469  0.14912624
   0.79794698  0.33680469  0.14912624
   0.13202348  0.33664580  0.24665313
   0.63226867  0.08679122  0.24690938
   0.46641658  0.33648453  0.34538829
   0.96621757  0.08664197  0.34510852
   0.21461365  0.96180469  0.05105452
   0.71461365  0.71180469  0.05105452
   0.04794698  0.71180469  0.14912624
   0.54794698  0.96180469  0.14912624
   0.38092700  0.71181833  0.24768476
   0.88235706  0.96203969  0.24657094
   0.21643703  0.96297192  0.34454391
   0.71605878  0.71108943  0.34519992
   0.21461365  0.71180469  0.05105452
   0.71461365  0.96180469  0.05105452
   0.04794698  0.96180469  0.14912624
   0.54794698  0.71180469  0.14912624
   0.38234690  0.96191176  0.24674333
   0.88242648  0.71162882  0.24664105
   0.21540797  0.71223511  0.34840340
   0.71622935  0.96130363  0.34527279
   0.46461365  0.58680469  0.05105452
   0.96461365  0.83680469  0.05105452
   0.29794698  0.83680469  0.14912624
   0.79794698  0.58680469  0.14912624
   0.13294218  0.58747054  0.24745315
   0.63242193  0.83669129  0.24664151
   0.46722676  0.58552452  0.34443503
   0.96417031  0.83726193  0.34434721
   0.46461365  0.83680469  0.05105452
   0.96461365  0.58680469  0.05105452
   0.29794698  0.58680469  0.14912624
   0.79794698  0.83680469  0.14912624
   0.13271855  0.83636065  0.24762865
   0.63241725  0.58668857  0.24652696
   0.46729827  0.83712369  0.34452437
   0.96457175  0.58557485  0.34414401
Direct configuration=    43
   0.11171287  0.64767684  0.46370425
   0.28970570  0.65121899  0.46560579
   0.19973973  0.70584352  0.45714491
   0.21461365  0.46180469  0.05105452
   0.71461365  0.21180469  0.05105452
   0.04794698  0.21180469  0.14912624
   0.54794698  0.46180469  0.14912624
   0.38224801  0.21177757  0.24698272
   0.88229138  0.46138375  0.24660772
   0.21647550  0.46019311  0.34440307
   0.71651319  0.21145826  0.34532292
   0.21461365  0.21180469  0.05105452
   0.71461365  0.46180469  0.05105452
   0.04794698  0.46180469  0.14912624
   0.54794698  0.21180469  0.14912624
   0.38218834  0.46160166  0.24652330
   0.88226686  0.21178020  0.24690746
   0.21651112  0.21164908  0.34556505
   0.71651792  0.46066623  0.34534531
   0.46461365  0.08680469  0.05105452
   0.96461365  0.33680469  0.05105452
   0.29794698  0.33680469  0.14912624
   0.79794698  0.08680469  0.14912624
   0.13209054  0.08690594  0.24668681
   0.63232341  0.33686271  0.24695673
   0.46653713  0.08667425  0.34535382
   0.96654845  0.33675730  0.34536634
   0.46461365  0.33680469  0.05105452
   0.96461365  0.08680469  0.05105452
   0.29794698  0.08680469  0.14912624
   0.79794698  0.33680469  0.14912624
   0.13202288  0.33664800  0.24666380
   0.63227601  0.08680002  0.24691860
   0.46644506  0.33650957  0.34538771
   0.96621927  0.08665640  0.34511393
   0.21461365  0.96180469  0.05105452
   0.71461365  0.71180469  0.05105452
   0.04794698  0.71180469  0.14912624
   0.54794698  0.96180469  0.14912624
   0.38093813  0.71182964  0.24768724
   0.88237106  0.96205066  0.24657132
   0.21647147  0.96298807  0.34454755
   0.71608912  0.71111210  0.34519872
   0.21461365  0.71180469  0.05105452
   0.71461365  0.96180469  0.05105452
   0.04794698  0.96180469  0.14912624
   0.54794698  0.71180469  0.14912624
   0.38235150  0.96193558  0.24674553
   0.88244211  0.71163941  0.24664109
   0.21543526  0.71225392  0.34841228
   0.71624323  0.96131628  0.34526865
   0.46461365  0.58680469  0.05105452
   0.96461365  0.83680469  0.05105452
   0.29794698  0.83680469  0.14912624
   0.79794698  0.58680469  0.14912624
   0.13294993  0.58747900  0.24745951
   0.63243554  0.83669933  0.24663590
   0.46724342  0.58554054  0.34444328
   0.96418888  0.83728127  0.34434395
   0.46461365  0.83680469  0.05105452
   0.96461365  0.58680469  0.05105452
   0.29794698  0.58680469  0.14912624
   0.79794698  0.83680469  0.14912624
   0.13273459  0.83638642  0.24764464
   0.63242331  0.58670269  0.24652361
   0.46732699  0.83714709  0.34451864
   0.96460057  0.58558480  0.34414193
Direct configuration=    44
   0.11164096  0.64751220  0.46364562
   0.28955851  0.65111878  0.46576528
   0.19962475  0.70572324  0.45720119
   0.21461365  0.46180469  0.05105452
   0.71461365  0.21180469  0.05105452
   0.04794698  0.21180469  0.14912624
   0.54794698  0.46180469  0.14912624
   0.38224121  0.21180771  0.24699030
   0.88229640  0.46140210  0.24660806
   0.21651639  0.46022695  0.34440667
   0.71651558  0.21148877  0.34534133
   0.21461365  0.21180469  0.05105452
   0.71461365  0.46180469  0.05105452
   0.04794698  0.46180469  0.14912624
   0.54794698  0.21180469  0.14912624
   0.38220978  0.46162760  0.24652227
   0.88226714  0.21180430  0.24692052
   0.21653313  0.21169689  0.34557365
   0.71655532  0.46070318  0.34534015
   0.46461365  0.08680469  0.05105452
   0.96461365  0.33680469  0.05105452
   0.29794698  0.33680469  0.14912624
   0.79794698  0.08680469  0.14912624
   0.13208717  0.08693439  0.24668999
   0.63233092  0.33687266  0.24695690
   0.46657581  0.08670228  0.34536301
   0.96656756  0.33678775  0.34537775
   0.46461365  0.33680469  0.05105452
   0.96461365  0.08680469  0.05105452
   0.29794698  0.08680469  0.14912624
   0.79794698  0.33680469  0.14912624
   0.13202232  0.33665665  0.24667520
   0.63229085  0.08681457  0.24692928
   0.46648387  0.33654763  0.34538743
   0.96622752  0.08669048  0.34512156
   0.21461365  0.96180469  0.05105452
   0.71461365  0.71180469  0.05105452
   0.04794698  0.71180469  0.14912624
   0.54794698  0.96180469  0.14912624
   0.38095606  0.71184787  0.24768933
   0.88237231  0.96206310  0.24656831
   0.21652225  0.96302088  0.34455292
   0.71613683  0.71113352  0.34520274
   0.21461365  0.71180469  0.05105452
   0.71461365  0.96180469  0.05105452
   0.04794698  0.96180469  0.14912624
   0.54794698  0.71180469  0.14912624
   0.38236105  0.96196776  0.24674552
   0.88246816  0.71166307  0.24663972
   0.21547918  0.71227768  0.34842506
   0.71626422  0.96135153  0.34526307
   0.46461365  0.58680469  0.05105452
   0.96461365  0.83680469  0.05105452
   0.29794698  0.83680469  0.14912624
   0.79794698  0.58680469  0.14912624
   0.13296343  0.58750074  0.24746150
   0.63246264  0.83671093  0.24662591
   0.46728256  0.58557161  0.34445714
   0.96422074  0.83729498  0.34434418
   0.46461365  0.83680469  0.05105452
   0.96461365  0.58680469  0.05105452
   0.29794698  0.58680469  0.14912624
   0.79794698  0.83680469  0.14912624
   0.13276982  0.83640901  0.24766365
   0.63243334  0.58672912  0.24652334
   0.46736861  0.83717168  0.34451725
   0.96462900  0.58562022  0.34413864
Direct configuration=    45
   0.11162364  0.64747253  0.46363149
   0.28952305  0.65109464  0.46580370
   0.19959705  0.70569426  0.45721475
   0.21461365  0.46180469  0.05105452
   0.71461365  0.21180469  0.05105452
   0.04794698  0.21180469  0.14912624
   0.54794698  0.46180469  0.14912624
   0.38223957  0.21181497  0.24699212
   0.88229761  0.46140652  0.24660815
   0.21652624  0.46023510  0.34440753
   0.71651616  0.21149612  0.34534577
   0.21461365  0.21180469  0.05105452
   0.71461365  0.46180469  0.05105452
   0.04794698  0.46180469  0.14912624
   0.54794698  0.21180469  0.14912624
   0.38221494  0.46163386  0.24652203
   0.88226720  0.21181010  0.24692366
   0.21653843  0.21170841  0.34557572
   0.71656433  0.46071209  0.34533891
   0.46461365  0.08680469  0.05105452
   0.96461365  0.33680469  0.05105452
   0.29794698  0.33680469  0.14912624
   0.79794698  0.08680469  0.14912624
   0.13208636  0.08694124  0.24669075
   0.63233273  0.33687506  0.24695694
   0.46658513  0.08670903  0.34536522
   0.96657217  0.33679508  0.34538050
   0.46461365  0.33680469  0.05105452
   0.96461365  0.08680469  0.05105452
   0.29794698  0.08680469  0.14912624
   0.79794698  0.33680469  0.14912624
   0.13202218  0.33665873  0.24667795
   0.63229443  0.08681808  0.24693185
   0.46649322  0.33655680  0.34538736
   0.96622951  0.08669869  0.34512340
   0.21461365  0.96180469  0.05105452
   0.71461365  0.71180469  0.05105452
   0.04794698  0.71180469  0.14912624
   0.54794698  0.96180469  0.14912624
   0.38096038  0.71185226  0.24768984
   0.88237261  0.96206609  0.24656759
   0.21653449  0.96302879  0.34455421
   0.71614832  0.71113868  0.34520370
   0.21461365  0.71180469  0.05105452
   0.71461365  0.96180469  0.05105452
   0.04794698  0.96180469  0.14912624
   0.54794698  0.71180469  0.14912624
   0.38236335  0.96197552  0.24674552
   0.88247444  0.71166877  0.24663939
   0.21548976  0.71228340  0.34842814
   0.71626928  0.96136002  0.34526172
   0.46461365  0.58680469  0.05105452
   0.96461365  0.83680469  0.05105452
   0.29794698  0.83680469  0.14912624
   0.79794698  0.58680469  0.14912624
   0.13296668  0.58750598  0.24746198
   0.63246917  0.83671372  0.24662350
   0.46729199  0.58557909  0.34446048
   0.96422842  0.83729828  0.34434424
   0.46461365  0.83680469  0.05105452
   0.96461365  0.58680469  0.05105452
   0.29794698  0.58680469  0.14912624
   0.79794698  0.83680469  0.14912624
   0.13277832  0.83641446  0.24766823
   0.63243576  0.58673549  0.24652327
   0.46737864  0.83717760  0.34451691
   0.96463585  0.58562876  0.34413785
Direct configuration=    46
   0.11158898  0.64739319  0.46360324
   0.28945212  0.65104635  0.46588056
   0.19954164  0.70563629  0.45724187
   0.21461365  0.46180469  0.05105452
   0.71461365  0.21180469  0.05105452
   0.04794698  0.21180469  0.14912624
   0.54794698  0.46180469  0.14912624
   0.38223629  0.21182949  0.24699578
   0.88230003  0.46141536  0.24660832
   0.21654594  0.46025141  0.34440927
   0.71651731  0.21151082  0.34535464
   0.21461365  0.21180469  0.05105452
   0.71461365  0.46180469  0.05105452
   0.04794698  0.46180469  0.14912624
   0.54794698  0.21180469  0.14912624
   0.38222527  0.46164636  0.24652153
   0.88226734  0.21182172  0.24692995
   0.21654904  0.21173145  0.34557986
   0.71658235  0.46072989  0.34533643
   0.46461365  0.08680469  0.05105452
   0.96461365  0.33680469  0.05105452
   0.29794698  0.33680469  0.14912624
   0.79794698  0.08680469  0.14912624
   0.13208474  0.08695495  0.24669228
   0.63233635  0.33687986  0.24695702
   0.46660377  0.08672254  0.34536965
   0.96658138  0.33680976  0.34538600
   0.46461365  0.33680469  0.05105452
   0.96461365  0.08680469  0.05105452
   0.29794698  0.08680469  0.14912624
   0.79794698  0.33680469  0.14912624
   0.13202191  0.33666289  0.24668344
   0.63230158  0.08682509  0.24693699
   0.46651193  0.33657514  0.34538723
   0.96623349  0.08671511  0.34512708
   0.21461365  0.96180469  0.05105452
   0.71461365  0.71180469  0.05105452
   0.04794698  0.71180469  0.14912624
   0.54794698  0.96180469  0.14912624
   0.38096902  0.71186104  0.24769085
   0.88237321  0.96207209  0.24656614
   0.21655896  0.96304460  0.34455679
   0.71617131  0.71114900  0.34520564
   0.21461365  0.71180469  0.05105452
   0.71461365  0.96180469  0.05105452
   0.04794698  0.96180469  0.14912624
   0.54794698  0.71180469  0.14912624
   0.38236795  0.96199103  0.24674552
   0.88248700  0.71168017  0.24663873
   0.21551092  0.71229485  0.34843430
   0.71627940  0.96137701  0.34525903
   0.46461365  0.58680469  0.05105452
   0.96461365  0.83680469  0.05105452
   0.29794698  0.83680469  0.14912624
   0.79794698  0.58680469  0.14912624
   0.13297318  0.58751645  0.24746294
   0.63248223  0.83671930  0.24661868
   0.46731085  0.58559406  0.34446715
   0.96424378  0.83730488  0.34434435
   0.46461365  0.83680469  0.05105452
   0.96461365  0.58680469  0.05105452
   0.29794698  0.58680469  0.14912624
   0.79794698  0.83680469  0.14912624
   0.13279530  0.83642534  0.24767740
   0.63244060  0.58674823  0.24652314
   0.46739870  0.83718945  0.34451624
   0.96464955  0.58564583  0.34413627
Direct configuration=    47
   0.11151047  0.64724894  0.46358076
   0.28942599  0.65092875  0.46597398
   0.19954601  0.70572345  0.45724792
   0.21461365  0.46180469  0.05105452
   0.71461365  0.21180469  0.05105452
   0.04794698  0.21180469  0.14912624
   0.54794698  0.46180469  0.14912624
   0.38224165  0.21184571  0.24699590
   0.88230125  0.46142629  0.24659675
   0.21657646  0.46026927  0.34441406
   0.71652693  0.21150745  0.34536213
   0.21461365  0.21180469  0.05105452
   0.71461365  0.46180469  0.05105452
   0.04794698  0.46180469  0.14912624
   0.54794698  0.21180469  0.14912624
   0.38224069  0.46165817  0.24652171
   0.88226796  0.21183641  0.24693353
   0.21655164  0.21174693  0.34558221
   0.71659027  0.46077147  0.34534031
   0.46461365  0.08680469  0.05105452
   0.96461365  0.33680469  0.05105452
   0.29794698  0.33680469  0.14912624
   0.79794698  0.08680469  0.14912624
   0.13209036  0.08697137  0.24669323
   0.63232704  0.33688084  0.24694892
   0.46662285  0.08674449  0.34537373
   0.96659475  0.33680367  0.34538930
   0.46461365  0.33680469  0.05105452
   0.96461365  0.08680469  0.05105452
   0.29794698  0.08680469  0.14912624
   0.79794698  0.33680469  0.14912624
   0.13202187  0.33667415  0.24668191
   0.63230904  0.08683259  0.24693659
   0.46652208  0.33659193  0.34538886
   0.96624631  0.08674402  0.34512908
   0.21461365  0.96180469  0.05105452
   0.71461365  0.71180469  0.05105452
   0.04794698  0.71180469  0.14912624
   0.54794698  0.96180469  0.14912624
   0.38097638  0.71186893  0.24769023
   0.88235501  0.96207553  0.24656135
   0.21657494  0.96306668  0.34455950
   0.71618940  0.71114458  0.34521330
   0.21461365  0.71180469  0.05105452
   0.71461365  0.96180469  0.05105452
   0.04794698  0.96180469  0.14912624
   0.54794698  0.71180469  0.14912624
   0.38237491  0.96199773  0.24674234
   0.88249807  0.71169628  0.24663677
   0.21553145  0.71229848  0.34843999
   0.71628813  0.96140796  0.34525827
   0.46461365  0.58680469  0.05105452
   0.96461365  0.83680469  0.05105452
   0.29794698  0.83680469  0.14912624
   0.79794698  0.58680469  0.14912624
   0.13297903  0.58753429  0.24745518
   0.63249818  0.83672266  0.24661408
   0.46734002  0.58561341  0.34447331
   0.96425991  0.83729542  0.34435072
   0.46461365  0.83680469  0.05105452
   0.96461365  0.58680469  0.05105452
   0.29794698  0.58680469  0.14912624
   0.79794698  0.83680469  0.14912624
   0.13281842  0.83641570  0.24767750
   0.63244686  0.58676609  0.24652876
   0.46741187  0.83718789  0.34452342
   0.96464637  0.58568331  0.34413548
